*HEADING
Cantilever beam 100x10x5 mm, C3D20, tip load -1000 N, linear static
** Units: mm, N, MPa, tonne/mm^3
*NODE, NSET=NALL
1, 0.000000, -5.000000, -2.500000
2, 3.125000, -5.000000, -2.500000
3, 6.250000, -5.000000, -2.500000
4, 9.375000, -5.000000, -2.500000
5, 12.500000, -5.000000, -2.500000
6, 15.625000, -5.000000, -2.500000
7, 18.750000, -5.000000, -2.500000
8, 21.875000, -5.000000, -2.500000
9, 25.000000, -5.000000, -2.500000
10, 28.125000, -5.000000, -2.500000
11, 31.250000, -5.000000, -2.500000
12, 34.375000, -5.000000, -2.500000
13, 37.500000, -5.000000, -2.500000
14, 40.625000, -5.000000, -2.500000
15, 43.750000, -5.000000, -2.500000
16, 46.875000, -5.000000, -2.500000
17, 50.000000, -5.000000, -2.500000
18, 53.125000, -5.000000, -2.500000
19, 56.250000, -5.000000, -2.500000
20, 59.375000, -5.000000, -2.500000
21, 62.500000, -5.000000, -2.500000
22, 65.625000, -5.000000, -2.500000
23, 68.750000, -5.000000, -2.500000
24, 71.875000, -5.000000, -2.500000
25, 75.000000, -5.000000, -2.500000
26, 78.125000, -5.000000, -2.500000
27, 81.250000, -5.000000, -2.500000
28, 84.375000, -5.000000, -2.500000
29, 87.500000, -5.000000, -2.500000
30, 90.625000, -5.000000, -2.500000
31, 93.750000, -5.000000, -2.500000
32, 96.875000, -5.000000, -2.500000
33, 100.000000, -5.000000, -2.500000
34, 0.000000, -3.750000, -2.500000
35, 3.125000, -3.750000, -2.500000
36, 6.250000, -3.750000, -2.500000
37, 9.375000, -3.750000, -2.500000
38, 12.500000, -3.750000, -2.500000
39, 15.625000, -3.750000, -2.500000
40, 18.750000, -3.750000, -2.500000
41, 21.875000, -3.750000, -2.500000
42, 25.000000, -3.750000, -2.500000
43, 28.125000, -3.750000, -2.500000
44, 31.250000, -3.750000, -2.500000
45, 34.375000, -3.750000, -2.500000
46, 37.500000, -3.750000, -2.500000
47, 40.625000, -3.750000, -2.500000
48, 43.750000, -3.750000, -2.500000
49, 46.875000, -3.750000, -2.500000
50, 50.000000, -3.750000, -2.500000
51, 53.125000, -3.750000, -2.500000
52, 56.250000, -3.750000, -2.500000
53, 59.375000, -3.750000, -2.500000
54, 62.500000, -3.750000, -2.500000
55, 65.625000, -3.750000, -2.500000
56, 68.750000, -3.750000, -2.500000
57, 71.875000, -3.750000, -2.500000
58, 75.000000, -3.750000, -2.500000
59, 78.125000, -3.750000, -2.500000
60, 81.250000, -3.750000, -2.500000
61, 84.375000, -3.750000, -2.500000
62, 87.500000, -3.750000, -2.500000
63, 90.625000, -3.750000, -2.500000
64, 93.750000, -3.750000, -2.500000
65, 96.875000, -3.750000, -2.500000
66, 100.000000, -3.750000, -2.500000
67, 0.000000, -2.500000, -2.500000
68, 3.125000, -2.500000, -2.500000
69, 6.250000, -2.500000, -2.500000
70, 9.375000, -2.500000, -2.500000
71, 12.500000, -2.500000, -2.500000
72, 15.625000, -2.500000, -2.500000
73, 18.750000, -2.500000, -2.500000
74, 21.875000, -2.500000, -2.500000
75, 25.000000, -2.500000, -2.500000
76, 28.125000, -2.500000, -2.500000
77, 31.250000, -2.500000, -2.500000
78, 34.375000, -2.500000, -2.500000
79, 37.500000, -2.500000, -2.500000
80, 40.625000, -2.500000, -2.500000
81, 43.750000, -2.500000, -2.500000
82, 46.875000, -2.500000, -2.500000
83, 50.000000, -2.500000, -2.500000
84, 53.125000, -2.500000, -2.500000
85, 56.250000, -2.500000, -2.500000
86, 59.375000, -2.500000, -2.500000
87, 62.500000, -2.500000, -2.500000
88, 65.625000, -2.500000, -2.500000
89, 68.750000, -2.500000, -2.500000
90, 71.875000, -2.500000, -2.500000
91, 75.000000, -2.500000, -2.500000
92, 78.125000, -2.500000, -2.500000
93, 81.250000, -2.500000, -2.500000
94, 84.375000, -2.500000, -2.500000
95, 87.500000, -2.500000, -2.500000
96, 90.625000, -2.500000, -2.500000
97, 93.750000, -2.500000, -2.500000
98, 96.875000, -2.500000, -2.500000
99, 100.000000, -2.500000, -2.500000
100, 0.000000, -1.250000, -2.500000
101, 3.125000, -1.250000, -2.500000
102, 6.250000, -1.250000, -2.500000
103, 9.375000, -1.250000, -2.500000
104, 12.500000, -1.250000, -2.500000
105, 15.625000, -1.250000, -2.500000
106, 18.750000, -1.250000, -2.500000
107, 21.875000, -1.250000, -2.500000
108, 25.000000, -1.250000, -2.500000
109, 28.125000, -1.250000, -2.500000
110, 31.250000, -1.250000, -2.500000
111, 34.375000, -1.250000, -2.500000
112, 37.500000, -1.250000, -2.500000
113, 40.625000, -1.250000, -2.500000
114, 43.750000, -1.250000, -2.500000
115, 46.875000, -1.250000, -2.500000
116, 50.000000, -1.250000, -2.500000
117, 53.125000, -1.250000, -2.500000
118, 56.250000, -1.250000, -2.500000
119, 59.375000, -1.250000, -2.500000
120, 62.500000, -1.250000, -2.500000
121, 65.625000, -1.250000, -2.500000
122, 68.750000, -1.250000, -2.500000
123, 71.875000, -1.250000, -2.500000
124, 75.000000, -1.250000, -2.500000
125, 78.125000, -1.250000, -2.500000
126, 81.250000, -1.250000, -2.500000
127, 84.375000, -1.250000, -2.500000
128, 87.500000, -1.250000, -2.500000
129, 90.625000, -1.250000, -2.500000
130, 93.750000, -1.250000, -2.500000
131, 96.875000, -1.250000, -2.500000
132, 100.000000, -1.250000, -2.500000
133, 0.000000, 0.000000, -2.500000
134, 3.125000, 0.000000, -2.500000
135, 6.250000, 0.000000, -2.500000
136, 9.375000, 0.000000, -2.500000
137, 12.500000, 0.000000, -2.500000
138, 15.625000, 0.000000, -2.500000
139, 18.750000, 0.000000, -2.500000
140, 21.875000, 0.000000, -2.500000
141, 25.000000, 0.000000, -2.500000
142, 28.125000, 0.000000, -2.500000
143, 31.250000, 0.000000, -2.500000
144, 34.375000, 0.000000, -2.500000
145, 37.500000, 0.000000, -2.500000
146, 40.625000, 0.000000, -2.500000
147, 43.750000, 0.000000, -2.500000
148, 46.875000, 0.000000, -2.500000
149, 50.000000, 0.000000, -2.500000
150, 53.125000, 0.000000, -2.500000
151, 56.250000, 0.000000, -2.500000
152, 59.375000, 0.000000, -2.500000
153, 62.500000, 0.000000, -2.500000
154, 65.625000, 0.000000, -2.500000
155, 68.750000, 0.000000, -2.500000
156, 71.875000, 0.000000, -2.500000
157, 75.000000, 0.000000, -2.500000
158, 78.125000, 0.000000, -2.500000
159, 81.250000, 0.000000, -2.500000
160, 84.375000, 0.000000, -2.500000
161, 87.500000, 0.000000, -2.500000
162, 90.625000, 0.000000, -2.500000
163, 93.750000, 0.000000, -2.500000
164, 96.875000, 0.000000, -2.500000
165, 100.000000, 0.000000, -2.500000
166, 0.000000, 1.250000, -2.500000
167, 3.125000, 1.250000, -2.500000
168, 6.250000, 1.250000, -2.500000
169, 9.375000, 1.250000, -2.500000
170, 12.500000, 1.250000, -2.500000
171, 15.625000, 1.250000, -2.500000
172, 18.750000, 1.250000, -2.500000
173, 21.875000, 1.250000, -2.500000
174, 25.000000, 1.250000, -2.500000
175, 28.125000, 1.250000, -2.500000
176, 31.250000, 1.250000, -2.500000
177, 34.375000, 1.250000, -2.500000
178, 37.500000, 1.250000, -2.500000
179, 40.625000, 1.250000, -2.500000
180, 43.750000, 1.250000, -2.500000
181, 46.875000, 1.250000, -2.500000
182, 50.000000, 1.250000, -2.500000
183, 53.125000, 1.250000, -2.500000
184, 56.250000, 1.250000, -2.500000
185, 59.375000, 1.250000, -2.500000
186, 62.500000, 1.250000, -2.500000
187, 65.625000, 1.250000, -2.500000
188, 68.750000, 1.250000, -2.500000
189, 71.875000, 1.250000, -2.500000
190, 75.000000, 1.250000, -2.500000
191, 78.125000, 1.250000, -2.500000
192, 81.250000, 1.250000, -2.500000
193, 84.375000, 1.250000, -2.500000
194, 87.500000, 1.250000, -2.500000
195, 90.625000, 1.250000, -2.500000
196, 93.750000, 1.250000, -2.500000
197, 96.875000, 1.250000, -2.500000
198, 100.000000, 1.250000, -2.500000
199, 0.000000, 2.500000, -2.500000
200, 3.125000, 2.500000, -2.500000
201, 6.250000, 2.500000, -2.500000
202, 9.375000, 2.500000, -2.500000
203, 12.500000, 2.500000, -2.500000
204, 15.625000, 2.500000, -2.500000
205, 18.750000, 2.500000, -2.500000
206, 21.875000, 2.500000, -2.500000
207, 25.000000, 2.500000, -2.500000
208, 28.125000, 2.500000, -2.500000
209, 31.250000, 2.500000, -2.500000
210, 34.375000, 2.500000, -2.500000
211, 37.500000, 2.500000, -2.500000
212, 40.625000, 2.500000, -2.500000
213, 43.750000, 2.500000, -2.500000
214, 46.875000, 2.500000, -2.500000
215, 50.000000, 2.500000, -2.500000
216, 53.125000, 2.500000, -2.500000
217, 56.250000, 2.500000, -2.500000
218, 59.375000, 2.500000, -2.500000
219, 62.500000, 2.500000, -2.500000
220, 65.625000, 2.500000, -2.500000
221, 68.750000, 2.500000, -2.500000
222, 71.875000, 2.500000, -2.500000
223, 75.000000, 2.500000, -2.500000
224, 78.125000, 2.500000, -2.500000
225, 81.250000, 2.500000, -2.500000
226, 84.375000, 2.500000, -2.500000
227, 87.500000, 2.500000, -2.500000
228, 90.625000, 2.500000, -2.500000
229, 93.750000, 2.500000, -2.500000
230, 96.875000, 2.500000, -2.500000
231, 100.000000, 2.500000, -2.500000
232, 0.000000, 3.750000, -2.500000
233, 3.125000, 3.750000, -2.500000
234, 6.250000, 3.750000, -2.500000
235, 9.375000, 3.750000, -2.500000
236, 12.500000, 3.750000, -2.500000
237, 15.625000, 3.750000, -2.500000
238, 18.750000, 3.750000, -2.500000
239, 21.875000, 3.750000, -2.500000
240, 25.000000, 3.750000, -2.500000
241, 28.125000, 3.750000, -2.500000
242, 31.250000, 3.750000, -2.500000
243, 34.375000, 3.750000, -2.500000
244, 37.500000, 3.750000, -2.500000
245, 40.625000, 3.750000, -2.500000
246, 43.750000, 3.750000, -2.500000
247, 46.875000, 3.750000, -2.500000
248, 50.000000, 3.750000, -2.500000
249, 53.125000, 3.750000, -2.500000
250, 56.250000, 3.750000, -2.500000
251, 59.375000, 3.750000, -2.500000
252, 62.500000, 3.750000, -2.500000
253, 65.625000, 3.750000, -2.500000
254, 68.750000, 3.750000, -2.500000
255, 71.875000, 3.750000, -2.500000
256, 75.000000, 3.750000, -2.500000
257, 78.125000, 3.750000, -2.500000
258, 81.250000, 3.750000, -2.500000
259, 84.375000, 3.750000, -2.500000
260, 87.500000, 3.750000, -2.500000
261, 90.625000, 3.750000, -2.500000
262, 93.750000, 3.750000, -2.500000
263, 96.875000, 3.750000, -2.500000
264, 100.000000, 3.750000, -2.500000
265, 0.000000, 5.000000, -2.500000
266, 3.125000, 5.000000, -2.500000
267, 6.250000, 5.000000, -2.500000
268, 9.375000, 5.000000, -2.500000
269, 12.500000, 5.000000, -2.500000
270, 15.625000, 5.000000, -2.500000
271, 18.750000, 5.000000, -2.500000
272, 21.875000, 5.000000, -2.500000
273, 25.000000, 5.000000, -2.500000
274, 28.125000, 5.000000, -2.500000
275, 31.250000, 5.000000, -2.500000
276, 34.375000, 5.000000, -2.500000
277, 37.500000, 5.000000, -2.500000
278, 40.625000, 5.000000, -2.500000
279, 43.750000, 5.000000, -2.500000
280, 46.875000, 5.000000, -2.500000
281, 50.000000, 5.000000, -2.500000
282, 53.125000, 5.000000, -2.500000
283, 56.250000, 5.000000, -2.500000
284, 59.375000, 5.000000, -2.500000
285, 62.500000, 5.000000, -2.500000
286, 65.625000, 5.000000, -2.500000
287, 68.750000, 5.000000, -2.500000
288, 71.875000, 5.000000, -2.500000
289, 75.000000, 5.000000, -2.500000
290, 78.125000, 5.000000, -2.500000
291, 81.250000, 5.000000, -2.500000
292, 84.375000, 5.000000, -2.500000
293, 87.500000, 5.000000, -2.500000
294, 90.625000, 5.000000, -2.500000
295, 93.750000, 5.000000, -2.500000
296, 96.875000, 5.000000, -2.500000
297, 100.000000, 5.000000, -2.500000
298, 0.000000, -5.000000, -1.250000
299, 3.125000, -5.000000, -1.250000
300, 6.250000, -5.000000, -1.250000
301, 9.375000, -5.000000, -1.250000
302, 12.500000, -5.000000, -1.250000
303, 15.625000, -5.000000, -1.250000
304, 18.750000, -5.000000, -1.250000
305, 21.875000, -5.000000, -1.250000
306, 25.000000, -5.000000, -1.250000
307, 28.125000, -5.000000, -1.250000
308, 31.250000, -5.000000, -1.250000
309, 34.375000, -5.000000, -1.250000
310, 37.500000, -5.000000, -1.250000
311, 40.625000, -5.000000, -1.250000
312, 43.750000, -5.000000, -1.250000
313, 46.875000, -5.000000, -1.250000
314, 50.000000, -5.000000, -1.250000
315, 53.125000, -5.000000, -1.250000
316, 56.250000, -5.000000, -1.250000
317, 59.375000, -5.000000, -1.250000
318, 62.500000, -5.000000, -1.250000
319, 65.625000, -5.000000, -1.250000
320, 68.750000, -5.000000, -1.250000
321, 71.875000, -5.000000, -1.250000
322, 75.000000, -5.000000, -1.250000
323, 78.125000, -5.000000, -1.250000
324, 81.250000, -5.000000, -1.250000
325, 84.375000, -5.000000, -1.250000
326, 87.500000, -5.000000, -1.250000
327, 90.625000, -5.000000, -1.250000
328, 93.750000, -5.000000, -1.250000
329, 96.875000, -5.000000, -1.250000
330, 100.000000, -5.000000, -1.250000
331, 0.000000, -3.750000, -1.250000
332, 3.125000, -3.750000, -1.250000
333, 6.250000, -3.750000, -1.250000
334, 9.375000, -3.750000, -1.250000
335, 12.500000, -3.750000, -1.250000
336, 15.625000, -3.750000, -1.250000
337, 18.750000, -3.750000, -1.250000
338, 21.875000, -3.750000, -1.250000
339, 25.000000, -3.750000, -1.250000
340, 28.125000, -3.750000, -1.250000
341, 31.250000, -3.750000, -1.250000
342, 34.375000, -3.750000, -1.250000
343, 37.500000, -3.750000, -1.250000
344, 40.625000, -3.750000, -1.250000
345, 43.750000, -3.750000, -1.250000
346, 46.875000, -3.750000, -1.250000
347, 50.000000, -3.750000, -1.250000
348, 53.125000, -3.750000, -1.250000
349, 56.250000, -3.750000, -1.250000
350, 59.375000, -3.750000, -1.250000
351, 62.500000, -3.750000, -1.250000
352, 65.625000, -3.750000, -1.250000
353, 68.750000, -3.750000, -1.250000
354, 71.875000, -3.750000, -1.250000
355, 75.000000, -3.750000, -1.250000
356, 78.125000, -3.750000, -1.250000
357, 81.250000, -3.750000, -1.250000
358, 84.375000, -3.750000, -1.250000
359, 87.500000, -3.750000, -1.250000
360, 90.625000, -3.750000, -1.250000
361, 93.750000, -3.750000, -1.250000
362, 96.875000, -3.750000, -1.250000
363, 100.000000, -3.750000, -1.250000
364, 0.000000, -2.500000, -1.250000
365, 3.125000, -2.500000, -1.250000
366, 6.250000, -2.500000, -1.250000
367, 9.375000, -2.500000, -1.250000
368, 12.500000, -2.500000, -1.250000
369, 15.625000, -2.500000, -1.250000
370, 18.750000, -2.500000, -1.250000
371, 21.875000, -2.500000, -1.250000
372, 25.000000, -2.500000, -1.250000
373, 28.125000, -2.500000, -1.250000
374, 31.250000, -2.500000, -1.250000
375, 34.375000, -2.500000, -1.250000
376, 37.500000, -2.500000, -1.250000
377, 40.625000, -2.500000, -1.250000
378, 43.750000, -2.500000, -1.250000
379, 46.875000, -2.500000, -1.250000
380, 50.000000, -2.500000, -1.250000
381, 53.125000, -2.500000, -1.250000
382, 56.250000, -2.500000, -1.250000
383, 59.375000, -2.500000, -1.250000
384, 62.500000, -2.500000, -1.250000
385, 65.625000, -2.500000, -1.250000
386, 68.750000, -2.500000, -1.250000
387, 71.875000, -2.500000, -1.250000
388, 75.000000, -2.500000, -1.250000
389, 78.125000, -2.500000, -1.250000
390, 81.250000, -2.500000, -1.250000
391, 84.375000, -2.500000, -1.250000
392, 87.500000, -2.500000, -1.250000
393, 90.625000, -2.500000, -1.250000
394, 93.750000, -2.500000, -1.250000
395, 96.875000, -2.500000, -1.250000
396, 100.000000, -2.500000, -1.250000
397, 0.000000, -1.250000, -1.250000
398, 3.125000, -1.250000, -1.250000
399, 6.250000, -1.250000, -1.250000
400, 9.375000, -1.250000, -1.250000
401, 12.500000, -1.250000, -1.250000
402, 15.625000, -1.250000, -1.250000
403, 18.750000, -1.250000, -1.250000
404, 21.875000, -1.250000, -1.250000
405, 25.000000, -1.250000, -1.250000
406, 28.125000, -1.250000, -1.250000
407, 31.250000, -1.250000, -1.250000
408, 34.375000, -1.250000, -1.250000
409, 37.500000, -1.250000, -1.250000
410, 40.625000, -1.250000, -1.250000
411, 43.750000, -1.250000, -1.250000
412, 46.875000, -1.250000, -1.250000
413, 50.000000, -1.250000, -1.250000
414, 53.125000, -1.250000, -1.250000
415, 56.250000, -1.250000, -1.250000
416, 59.375000, -1.250000, -1.250000
417, 62.500000, -1.250000, -1.250000
418, 65.625000, -1.250000, -1.250000
419, 68.750000, -1.250000, -1.250000
420, 71.875000, -1.250000, -1.250000
421, 75.000000, -1.250000, -1.250000
422, 78.125000, -1.250000, -1.250000
423, 81.250000, -1.250000, -1.250000
424, 84.375000, -1.250000, -1.250000
425, 87.500000, -1.250000, -1.250000
426, 90.625000, -1.250000, -1.250000
427, 93.750000, -1.250000, -1.250000
428, 96.875000, -1.250000, -1.250000
429, 100.000000, -1.250000, -1.250000
430, 0.000000, 0.000000, -1.250000
431, 3.125000, 0.000000, -1.250000
432, 6.250000, 0.000000, -1.250000
433, 9.375000, 0.000000, -1.250000
434, 12.500000, 0.000000, -1.250000
435, 15.625000, 0.000000, -1.250000
436, 18.750000, 0.000000, -1.250000
437, 21.875000, 0.000000, -1.250000
438, 25.000000, 0.000000, -1.250000
439, 28.125000, 0.000000, -1.250000
440, 31.250000, 0.000000, -1.250000
441, 34.375000, 0.000000, -1.250000
442, 37.500000, 0.000000, -1.250000
443, 40.625000, 0.000000, -1.250000
444, 43.750000, 0.000000, -1.250000
445, 46.875000, 0.000000, -1.250000
446, 50.000000, 0.000000, -1.250000
447, 53.125000, 0.000000, -1.250000
448, 56.250000, 0.000000, -1.250000
449, 59.375000, 0.000000, -1.250000
450, 62.500000, 0.000000, -1.250000
451, 65.625000, 0.000000, -1.250000
452, 68.750000, 0.000000, -1.250000
453, 71.875000, 0.000000, -1.250000
454, 75.000000, 0.000000, -1.250000
455, 78.125000, 0.000000, -1.250000
456, 81.250000, 0.000000, -1.250000
457, 84.375000, 0.000000, -1.250000
458, 87.500000, 0.000000, -1.250000
459, 90.625000, 0.000000, -1.250000
460, 93.750000, 0.000000, -1.250000
461, 96.875000, 0.000000, -1.250000
462, 100.000000, 0.000000, -1.250000
463, 0.000000, 1.250000, -1.250000
464, 3.125000, 1.250000, -1.250000
465, 6.250000, 1.250000, -1.250000
466, 9.375000, 1.250000, -1.250000
467, 12.500000, 1.250000, -1.250000
468, 15.625000, 1.250000, -1.250000
469, 18.750000, 1.250000, -1.250000
470, 21.875000, 1.250000, -1.250000
471, 25.000000, 1.250000, -1.250000
472, 28.125000, 1.250000, -1.250000
473, 31.250000, 1.250000, -1.250000
474, 34.375000, 1.250000, -1.250000
475, 37.500000, 1.250000, -1.250000
476, 40.625000, 1.250000, -1.250000
477, 43.750000, 1.250000, -1.250000
478, 46.875000, 1.250000, -1.250000
479, 50.000000, 1.250000, -1.250000
480, 53.125000, 1.250000, -1.250000
481, 56.250000, 1.250000, -1.250000
482, 59.375000, 1.250000, -1.250000
483, 62.500000, 1.250000, -1.250000
484, 65.625000, 1.250000, -1.250000
485, 68.750000, 1.250000, -1.250000
486, 71.875000, 1.250000, -1.250000
487, 75.000000, 1.250000, -1.250000
488, 78.125000, 1.250000, -1.250000
489, 81.250000, 1.250000, -1.250000
490, 84.375000, 1.250000, -1.250000
491, 87.500000, 1.250000, -1.250000
492, 90.625000, 1.250000, -1.250000
493, 93.750000, 1.250000, -1.250000
494, 96.875000, 1.250000, -1.250000
495, 100.000000, 1.250000, -1.250000
496, 0.000000, 2.500000, -1.250000
497, 3.125000, 2.500000, -1.250000
498, 6.250000, 2.500000, -1.250000
499, 9.375000, 2.500000, -1.250000
500, 12.500000, 2.500000, -1.250000
501, 15.625000, 2.500000, -1.250000
502, 18.750000, 2.500000, -1.250000
503, 21.875000, 2.500000, -1.250000
504, 25.000000, 2.500000, -1.250000
505, 28.125000, 2.500000, -1.250000
506, 31.250000, 2.500000, -1.250000
507, 34.375000, 2.500000, -1.250000
508, 37.500000, 2.500000, -1.250000
509, 40.625000, 2.500000, -1.250000
510, 43.750000, 2.500000, -1.250000
511, 46.875000, 2.500000, -1.250000
512, 50.000000, 2.500000, -1.250000
513, 53.125000, 2.500000, -1.250000
514, 56.250000, 2.500000, -1.250000
515, 59.375000, 2.500000, -1.250000
516, 62.500000, 2.500000, -1.250000
517, 65.625000, 2.500000, -1.250000
518, 68.750000, 2.500000, -1.250000
519, 71.875000, 2.500000, -1.250000
520, 75.000000, 2.500000, -1.250000
521, 78.125000, 2.500000, -1.250000
522, 81.250000, 2.500000, -1.250000
523, 84.375000, 2.500000, -1.250000
524, 87.500000, 2.500000, -1.250000
525, 90.625000, 2.500000, -1.250000
526, 93.750000, 2.500000, -1.250000
527, 96.875000, 2.500000, -1.250000
528, 100.000000, 2.500000, -1.250000
529, 0.000000, 3.750000, -1.250000
530, 3.125000, 3.750000, -1.250000
531, 6.250000, 3.750000, -1.250000
532, 9.375000, 3.750000, -1.250000
533, 12.500000, 3.750000, -1.250000
534, 15.625000, 3.750000, -1.250000
535, 18.750000, 3.750000, -1.250000
536, 21.875000, 3.750000, -1.250000
537, 25.000000, 3.750000, -1.250000
538, 28.125000, 3.750000, -1.250000
539, 31.250000, 3.750000, -1.250000
540, 34.375000, 3.750000, -1.250000
541, 37.500000, 3.750000, -1.250000
542, 40.625000, 3.750000, -1.250000
543, 43.750000, 3.750000, -1.250000
544, 46.875000, 3.750000, -1.250000
545, 50.000000, 3.750000, -1.250000
546, 53.125000, 3.750000, -1.250000
547, 56.250000, 3.750000, -1.250000
548, 59.375000, 3.750000, -1.250000
549, 62.500000, 3.750000, -1.250000
550, 65.625000, 3.750000, -1.250000
551, 68.750000, 3.750000, -1.250000
552, 71.875000, 3.750000, -1.250000
553, 75.000000, 3.750000, -1.250000
554, 78.125000, 3.750000, -1.250000
555, 81.250000, 3.750000, -1.250000
556, 84.375000, 3.750000, -1.250000
557, 87.500000, 3.750000, -1.250000
558, 90.625000, 3.750000, -1.250000
559, 93.750000, 3.750000, -1.250000
560, 96.875000, 3.750000, -1.250000
561, 100.000000, 3.750000, -1.250000
562, 0.000000, 5.000000, -1.250000
563, 3.125000, 5.000000, -1.250000
564, 6.250000, 5.000000, -1.250000
565, 9.375000, 5.000000, -1.250000
566, 12.500000, 5.000000, -1.250000
567, 15.625000, 5.000000, -1.250000
568, 18.750000, 5.000000, -1.250000
569, 21.875000, 5.000000, -1.250000
570, 25.000000, 5.000000, -1.250000
571, 28.125000, 5.000000, -1.250000
572, 31.250000, 5.000000, -1.250000
573, 34.375000, 5.000000, -1.250000
574, 37.500000, 5.000000, -1.250000
575, 40.625000, 5.000000, -1.250000
576, 43.750000, 5.000000, -1.250000
577, 46.875000, 5.000000, -1.250000
578, 50.000000, 5.000000, -1.250000
579, 53.125000, 5.000000, -1.250000
580, 56.250000, 5.000000, -1.250000
581, 59.375000, 5.000000, -1.250000
582, 62.500000, 5.000000, -1.250000
583, 65.625000, 5.000000, -1.250000
584, 68.750000, 5.000000, -1.250000
585, 71.875000, 5.000000, -1.250000
586, 75.000000, 5.000000, -1.250000
587, 78.125000, 5.000000, -1.250000
588, 81.250000, 5.000000, -1.250000
589, 84.375000, 5.000000, -1.250000
590, 87.500000, 5.000000, -1.250000
591, 90.625000, 5.000000, -1.250000
592, 93.750000, 5.000000, -1.250000
593, 96.875000, 5.000000, -1.250000
594, 100.000000, 5.000000, -1.250000
595, 0.000000, -5.000000, 0.000000
596, 3.125000, -5.000000, 0.000000
597, 6.250000, -5.000000, 0.000000
598, 9.375000, -5.000000, 0.000000
599, 12.500000, -5.000000, 0.000000
600, 15.625000, -5.000000, 0.000000
601, 18.750000, -5.000000, 0.000000
602, 21.875000, -5.000000, 0.000000
603, 25.000000, -5.000000, 0.000000
604, 28.125000, -5.000000, 0.000000
605, 31.250000, -5.000000, 0.000000
606, 34.375000, -5.000000, 0.000000
607, 37.500000, -5.000000, 0.000000
608, 40.625000, -5.000000, 0.000000
609, 43.750000, -5.000000, 0.000000
610, 46.875000, -5.000000, 0.000000
611, 50.000000, -5.000000, 0.000000
612, 53.125000, -5.000000, 0.000000
613, 56.250000, -5.000000, 0.000000
614, 59.375000, -5.000000, 0.000000
615, 62.500000, -5.000000, 0.000000
616, 65.625000, -5.000000, 0.000000
617, 68.750000, -5.000000, 0.000000
618, 71.875000, -5.000000, 0.000000
619, 75.000000, -5.000000, 0.000000
620, 78.125000, -5.000000, 0.000000
621, 81.250000, -5.000000, 0.000000
622, 84.375000, -5.000000, 0.000000
623, 87.500000, -5.000000, 0.000000
624, 90.625000, -5.000000, 0.000000
625, 93.750000, -5.000000, 0.000000
626, 96.875000, -5.000000, 0.000000
627, 100.000000, -5.000000, 0.000000
628, 0.000000, -3.750000, 0.000000
629, 3.125000, -3.750000, 0.000000
630, 6.250000, -3.750000, 0.000000
631, 9.375000, -3.750000, 0.000000
632, 12.500000, -3.750000, 0.000000
633, 15.625000, -3.750000, 0.000000
634, 18.750000, -3.750000, 0.000000
635, 21.875000, -3.750000, 0.000000
636, 25.000000, -3.750000, 0.000000
637, 28.125000, -3.750000, 0.000000
638, 31.250000, -3.750000, 0.000000
639, 34.375000, -3.750000, 0.000000
640, 37.500000, -3.750000, 0.000000
641, 40.625000, -3.750000, 0.000000
642, 43.750000, -3.750000, 0.000000
643, 46.875000, -3.750000, 0.000000
644, 50.000000, -3.750000, 0.000000
645, 53.125000, -3.750000, 0.000000
646, 56.250000, -3.750000, 0.000000
647, 59.375000, -3.750000, 0.000000
648, 62.500000, -3.750000, 0.000000
649, 65.625000, -3.750000, 0.000000
650, 68.750000, -3.750000, 0.000000
651, 71.875000, -3.750000, 0.000000
652, 75.000000, -3.750000, 0.000000
653, 78.125000, -3.750000, 0.000000
654, 81.250000, -3.750000, 0.000000
655, 84.375000, -3.750000, 0.000000
656, 87.500000, -3.750000, 0.000000
657, 90.625000, -3.750000, 0.000000
658, 93.750000, -3.750000, 0.000000
659, 96.875000, -3.750000, 0.000000
660, 100.000000, -3.750000, 0.000000
661, 0.000000, -2.500000, 0.000000
662, 3.125000, -2.500000, 0.000000
663, 6.250000, -2.500000, 0.000000
664, 9.375000, -2.500000, 0.000000
665, 12.500000, -2.500000, 0.000000
666, 15.625000, -2.500000, 0.000000
667, 18.750000, -2.500000, 0.000000
668, 21.875000, -2.500000, 0.000000
669, 25.000000, -2.500000, 0.000000
670, 28.125000, -2.500000, 0.000000
671, 31.250000, -2.500000, 0.000000
672, 34.375000, -2.500000, 0.000000
673, 37.500000, -2.500000, 0.000000
674, 40.625000, -2.500000, 0.000000
675, 43.750000, -2.500000, 0.000000
676, 46.875000, -2.500000, 0.000000
677, 50.000000, -2.500000, 0.000000
678, 53.125000, -2.500000, 0.000000
679, 56.250000, -2.500000, 0.000000
680, 59.375000, -2.500000, 0.000000
681, 62.500000, -2.500000, 0.000000
682, 65.625000, -2.500000, 0.000000
683, 68.750000, -2.500000, 0.000000
684, 71.875000, -2.500000, 0.000000
685, 75.000000, -2.500000, 0.000000
686, 78.125000, -2.500000, 0.000000
687, 81.250000, -2.500000, 0.000000
688, 84.375000, -2.500000, 0.000000
689, 87.500000, -2.500000, 0.000000
690, 90.625000, -2.500000, 0.000000
691, 93.750000, -2.500000, 0.000000
692, 96.875000, -2.500000, 0.000000
693, 100.000000, -2.500000, 0.000000
694, 0.000000, -1.250000, 0.000000
695, 3.125000, -1.250000, 0.000000
696, 6.250000, -1.250000, 0.000000
697, 9.375000, -1.250000, 0.000000
698, 12.500000, -1.250000, 0.000000
699, 15.625000, -1.250000, 0.000000
700, 18.750000, -1.250000, 0.000000
701, 21.875000, -1.250000, 0.000000
702, 25.000000, -1.250000, 0.000000
703, 28.125000, -1.250000, 0.000000
704, 31.250000, -1.250000, 0.000000
705, 34.375000, -1.250000, 0.000000
706, 37.500000, -1.250000, 0.000000
707, 40.625000, -1.250000, 0.000000
708, 43.750000, -1.250000, 0.000000
709, 46.875000, -1.250000, 0.000000
710, 50.000000, -1.250000, 0.000000
711, 53.125000, -1.250000, 0.000000
712, 56.250000, -1.250000, 0.000000
713, 59.375000, -1.250000, 0.000000
714, 62.500000, -1.250000, 0.000000
715, 65.625000, -1.250000, 0.000000
716, 68.750000, -1.250000, 0.000000
717, 71.875000, -1.250000, 0.000000
718, 75.000000, -1.250000, 0.000000
719, 78.125000, -1.250000, 0.000000
720, 81.250000, -1.250000, 0.000000
721, 84.375000, -1.250000, 0.000000
722, 87.500000, -1.250000, 0.000000
723, 90.625000, -1.250000, 0.000000
724, 93.750000, -1.250000, 0.000000
725, 96.875000, -1.250000, 0.000000
726, 100.000000, -1.250000, 0.000000
727, 0.000000, 0.000000, 0.000000
728, 3.125000, 0.000000, 0.000000
729, 6.250000, 0.000000, 0.000000
730, 9.375000, 0.000000, 0.000000
731, 12.500000, 0.000000, 0.000000
732, 15.625000, 0.000000, 0.000000
733, 18.750000, 0.000000, 0.000000
734, 21.875000, 0.000000, 0.000000
735, 25.000000, 0.000000, 0.000000
736, 28.125000, 0.000000, 0.000000
737, 31.250000, 0.000000, 0.000000
738, 34.375000, 0.000000, 0.000000
739, 37.500000, 0.000000, 0.000000
740, 40.625000, 0.000000, 0.000000
741, 43.750000, 0.000000, 0.000000
742, 46.875000, 0.000000, 0.000000
743, 50.000000, 0.000000, 0.000000
744, 53.125000, 0.000000, 0.000000
745, 56.250000, 0.000000, 0.000000
746, 59.375000, 0.000000, 0.000000
747, 62.500000, 0.000000, 0.000000
748, 65.625000, 0.000000, 0.000000
749, 68.750000, 0.000000, 0.000000
750, 71.875000, 0.000000, 0.000000
751, 75.000000, 0.000000, 0.000000
752, 78.125000, 0.000000, 0.000000
753, 81.250000, 0.000000, 0.000000
754, 84.375000, 0.000000, 0.000000
755, 87.500000, 0.000000, 0.000000
756, 90.625000, 0.000000, 0.000000
757, 93.750000, 0.000000, 0.000000
758, 96.875000, 0.000000, 0.000000
759, 100.000000, 0.000000, 0.000000
760, 0.000000, 1.250000, 0.000000
761, 3.125000, 1.250000, 0.000000
762, 6.250000, 1.250000, 0.000000
763, 9.375000, 1.250000, 0.000000
764, 12.500000, 1.250000, 0.000000
765, 15.625000, 1.250000, 0.000000
766, 18.750000, 1.250000, 0.000000
767, 21.875000, 1.250000, 0.000000
768, 25.000000, 1.250000, 0.000000
769, 28.125000, 1.250000, 0.000000
770, 31.250000, 1.250000, 0.000000
771, 34.375000, 1.250000, 0.000000
772, 37.500000, 1.250000, 0.000000
773, 40.625000, 1.250000, 0.000000
774, 43.750000, 1.250000, 0.000000
775, 46.875000, 1.250000, 0.000000
776, 50.000000, 1.250000, 0.000000
777, 53.125000, 1.250000, 0.000000
778, 56.250000, 1.250000, 0.000000
779, 59.375000, 1.250000, 0.000000
780, 62.500000, 1.250000, 0.000000
781, 65.625000, 1.250000, 0.000000
782, 68.750000, 1.250000, 0.000000
783, 71.875000, 1.250000, 0.000000
784, 75.000000, 1.250000, 0.000000
785, 78.125000, 1.250000, 0.000000
786, 81.250000, 1.250000, 0.000000
787, 84.375000, 1.250000, 0.000000
788, 87.500000, 1.250000, 0.000000
789, 90.625000, 1.250000, 0.000000
790, 93.750000, 1.250000, 0.000000
791, 96.875000, 1.250000, 0.000000
792, 100.000000, 1.250000, 0.000000
793, 0.000000, 2.500000, 0.000000
794, 3.125000, 2.500000, 0.000000
795, 6.250000, 2.500000, 0.000000
796, 9.375000, 2.500000, 0.000000
797, 12.500000, 2.500000, 0.000000
798, 15.625000, 2.500000, 0.000000
799, 18.750000, 2.500000, 0.000000
800, 21.875000, 2.500000, 0.000000
801, 25.000000, 2.500000, 0.000000
802, 28.125000, 2.500000, 0.000000
803, 31.250000, 2.500000, 0.000000
804, 34.375000, 2.500000, 0.000000
805, 37.500000, 2.500000, 0.000000
806, 40.625000, 2.500000, 0.000000
807, 43.750000, 2.500000, 0.000000
808, 46.875000, 2.500000, 0.000000
809, 50.000000, 2.500000, 0.000000
810, 53.125000, 2.500000, 0.000000
811, 56.250000, 2.500000, 0.000000
812, 59.375000, 2.500000, 0.000000
813, 62.500000, 2.500000, 0.000000
814, 65.625000, 2.500000, 0.000000
815, 68.750000, 2.500000, 0.000000
816, 71.875000, 2.500000, 0.000000
817, 75.000000, 2.500000, 0.000000
818, 78.125000, 2.500000, 0.000000
819, 81.250000, 2.500000, 0.000000
820, 84.375000, 2.500000, 0.000000
821, 87.500000, 2.500000, 0.000000
822, 90.625000, 2.500000, 0.000000
823, 93.750000, 2.500000, 0.000000
824, 96.875000, 2.500000, 0.000000
825, 100.000000, 2.500000, 0.000000
826, 0.000000, 3.750000, 0.000000
827, 3.125000, 3.750000, 0.000000
828, 6.250000, 3.750000, 0.000000
829, 9.375000, 3.750000, 0.000000
830, 12.500000, 3.750000, 0.000000
831, 15.625000, 3.750000, 0.000000
832, 18.750000, 3.750000, 0.000000
833, 21.875000, 3.750000, 0.000000
834, 25.000000, 3.750000, 0.000000
835, 28.125000, 3.750000, 0.000000
836, 31.250000, 3.750000, 0.000000
837, 34.375000, 3.750000, 0.000000
838, 37.500000, 3.750000, 0.000000
839, 40.625000, 3.750000, 0.000000
840, 43.750000, 3.750000, 0.000000
841, 46.875000, 3.750000, 0.000000
842, 50.000000, 3.750000, 0.000000
843, 53.125000, 3.750000, 0.000000
844, 56.250000, 3.750000, 0.000000
845, 59.375000, 3.750000, 0.000000
846, 62.500000, 3.750000, 0.000000
847, 65.625000, 3.750000, 0.000000
848, 68.750000, 3.750000, 0.000000
849, 71.875000, 3.750000, 0.000000
850, 75.000000, 3.750000, 0.000000
851, 78.125000, 3.750000, 0.000000
852, 81.250000, 3.750000, 0.000000
853, 84.375000, 3.750000, 0.000000
854, 87.500000, 3.750000, 0.000000
855, 90.625000, 3.750000, 0.000000
856, 93.750000, 3.750000, 0.000000
857, 96.875000, 3.750000, 0.000000
858, 100.000000, 3.750000, 0.000000
859, 0.000000, 5.000000, 0.000000
860, 3.125000, 5.000000, 0.000000
861, 6.250000, 5.000000, 0.000000
862, 9.375000, 5.000000, 0.000000
863, 12.500000, 5.000000, 0.000000
864, 15.625000, 5.000000, 0.000000
865, 18.750000, 5.000000, 0.000000
866, 21.875000, 5.000000, 0.000000
867, 25.000000, 5.000000, 0.000000
868, 28.125000, 5.000000, 0.000000
869, 31.250000, 5.000000, 0.000000
870, 34.375000, 5.000000, 0.000000
871, 37.500000, 5.000000, 0.000000
872, 40.625000, 5.000000, 0.000000
873, 43.750000, 5.000000, 0.000000
874, 46.875000, 5.000000, 0.000000
875, 50.000000, 5.000000, 0.000000
876, 53.125000, 5.000000, 0.000000
877, 56.250000, 5.000000, 0.000000
878, 59.375000, 5.000000, 0.000000
879, 62.500000, 5.000000, 0.000000
880, 65.625000, 5.000000, 0.000000
881, 68.750000, 5.000000, 0.000000
882, 71.875000, 5.000000, 0.000000
883, 75.000000, 5.000000, 0.000000
884, 78.125000, 5.000000, 0.000000
885, 81.250000, 5.000000, 0.000000
886, 84.375000, 5.000000, 0.000000
887, 87.500000, 5.000000, 0.000000
888, 90.625000, 5.000000, 0.000000
889, 93.750000, 5.000000, 0.000000
890, 96.875000, 5.000000, 0.000000
891, 100.000000, 5.000000, 0.000000
892, 0.000000, -5.000000, 1.250000
893, 3.125000, -5.000000, 1.250000
894, 6.250000, -5.000000, 1.250000
895, 9.375000, -5.000000, 1.250000
896, 12.500000, -5.000000, 1.250000
897, 15.625000, -5.000000, 1.250000
898, 18.750000, -5.000000, 1.250000
899, 21.875000, -5.000000, 1.250000
900, 25.000000, -5.000000, 1.250000
901, 28.125000, -5.000000, 1.250000
902, 31.250000, -5.000000, 1.250000
903, 34.375000, -5.000000, 1.250000
904, 37.500000, -5.000000, 1.250000
905, 40.625000, -5.000000, 1.250000
906, 43.750000, -5.000000, 1.250000
907, 46.875000, -5.000000, 1.250000
908, 50.000000, -5.000000, 1.250000
909, 53.125000, -5.000000, 1.250000
910, 56.250000, -5.000000, 1.250000
911, 59.375000, -5.000000, 1.250000
912, 62.500000, -5.000000, 1.250000
913, 65.625000, -5.000000, 1.250000
914, 68.750000, -5.000000, 1.250000
915, 71.875000, -5.000000, 1.250000
916, 75.000000, -5.000000, 1.250000
917, 78.125000, -5.000000, 1.250000
918, 81.250000, -5.000000, 1.250000
919, 84.375000, -5.000000, 1.250000
920, 87.500000, -5.000000, 1.250000
921, 90.625000, -5.000000, 1.250000
922, 93.750000, -5.000000, 1.250000
923, 96.875000, -5.000000, 1.250000
924, 100.000000, -5.000000, 1.250000
925, 0.000000, -3.750000, 1.250000
926, 3.125000, -3.750000, 1.250000
927, 6.250000, -3.750000, 1.250000
928, 9.375000, -3.750000, 1.250000
929, 12.500000, -3.750000, 1.250000
930, 15.625000, -3.750000, 1.250000
931, 18.750000, -3.750000, 1.250000
932, 21.875000, -3.750000, 1.250000
933, 25.000000, -3.750000, 1.250000
934, 28.125000, -3.750000, 1.250000
935, 31.250000, -3.750000, 1.250000
936, 34.375000, -3.750000, 1.250000
937, 37.500000, -3.750000, 1.250000
938, 40.625000, -3.750000, 1.250000
939, 43.750000, -3.750000, 1.250000
940, 46.875000, -3.750000, 1.250000
941, 50.000000, -3.750000, 1.250000
942, 53.125000, -3.750000, 1.250000
943, 56.250000, -3.750000, 1.250000
944, 59.375000, -3.750000, 1.250000
945, 62.500000, -3.750000, 1.250000
946, 65.625000, -3.750000, 1.250000
947, 68.750000, -3.750000, 1.250000
948, 71.875000, -3.750000, 1.250000
949, 75.000000, -3.750000, 1.250000
950, 78.125000, -3.750000, 1.250000
951, 81.250000, -3.750000, 1.250000
952, 84.375000, -3.750000, 1.250000
953, 87.500000, -3.750000, 1.250000
954, 90.625000, -3.750000, 1.250000
955, 93.750000, -3.750000, 1.250000
956, 96.875000, -3.750000, 1.250000
957, 100.000000, -3.750000, 1.250000
958, 0.000000, -2.500000, 1.250000
959, 3.125000, -2.500000, 1.250000
960, 6.250000, -2.500000, 1.250000
961, 9.375000, -2.500000, 1.250000
962, 12.500000, -2.500000, 1.250000
963, 15.625000, -2.500000, 1.250000
964, 18.750000, -2.500000, 1.250000
965, 21.875000, -2.500000, 1.250000
966, 25.000000, -2.500000, 1.250000
967, 28.125000, -2.500000, 1.250000
968, 31.250000, -2.500000, 1.250000
969, 34.375000, -2.500000, 1.250000
970, 37.500000, -2.500000, 1.250000
971, 40.625000, -2.500000, 1.250000
972, 43.750000, -2.500000, 1.250000
973, 46.875000, -2.500000, 1.250000
974, 50.000000, -2.500000, 1.250000
975, 53.125000, -2.500000, 1.250000
976, 56.250000, -2.500000, 1.250000
977, 59.375000, -2.500000, 1.250000
978, 62.500000, -2.500000, 1.250000
979, 65.625000, -2.500000, 1.250000
980, 68.750000, -2.500000, 1.250000
981, 71.875000, -2.500000, 1.250000
982, 75.000000, -2.500000, 1.250000
983, 78.125000, -2.500000, 1.250000
984, 81.250000, -2.500000, 1.250000
985, 84.375000, -2.500000, 1.250000
986, 87.500000, -2.500000, 1.250000
987, 90.625000, -2.500000, 1.250000
988, 93.750000, -2.500000, 1.250000
989, 96.875000, -2.500000, 1.250000
990, 100.000000, -2.500000, 1.250000
991, 0.000000, -1.250000, 1.250000
992, 3.125000, -1.250000, 1.250000
993, 6.250000, -1.250000, 1.250000
994, 9.375000, -1.250000, 1.250000
995, 12.500000, -1.250000, 1.250000
996, 15.625000, -1.250000, 1.250000
997, 18.750000, -1.250000, 1.250000
998, 21.875000, -1.250000, 1.250000
999, 25.000000, -1.250000, 1.250000
1000, 28.125000, -1.250000, 1.250000
1001, 31.250000, -1.250000, 1.250000
1002, 34.375000, -1.250000, 1.250000
1003, 37.500000, -1.250000, 1.250000
1004, 40.625000, -1.250000, 1.250000
1005, 43.750000, -1.250000, 1.250000
1006, 46.875000, -1.250000, 1.250000
1007, 50.000000, -1.250000, 1.250000
1008, 53.125000, -1.250000, 1.250000
1009, 56.250000, -1.250000, 1.250000
1010, 59.375000, -1.250000, 1.250000
1011, 62.500000, -1.250000, 1.250000
1012, 65.625000, -1.250000, 1.250000
1013, 68.750000, -1.250000, 1.250000
1014, 71.875000, -1.250000, 1.250000
1015, 75.000000, -1.250000, 1.250000
1016, 78.125000, -1.250000, 1.250000
1017, 81.250000, -1.250000, 1.250000
1018, 84.375000, -1.250000, 1.250000
1019, 87.500000, -1.250000, 1.250000
1020, 90.625000, -1.250000, 1.250000
1021, 93.750000, -1.250000, 1.250000
1022, 96.875000, -1.250000, 1.250000
1023, 100.000000, -1.250000, 1.250000
1024, 0.000000, 0.000000, 1.250000
1025, 3.125000, 0.000000, 1.250000
1026, 6.250000, 0.000000, 1.250000
1027, 9.375000, 0.000000, 1.250000
1028, 12.500000, 0.000000, 1.250000
1029, 15.625000, 0.000000, 1.250000
1030, 18.750000, 0.000000, 1.250000
1031, 21.875000, 0.000000, 1.250000
1032, 25.000000, 0.000000, 1.250000
1033, 28.125000, 0.000000, 1.250000
1034, 31.250000, 0.000000, 1.250000
1035, 34.375000, 0.000000, 1.250000
1036, 37.500000, 0.000000, 1.250000
1037, 40.625000, 0.000000, 1.250000
1038, 43.750000, 0.000000, 1.250000
1039, 46.875000, 0.000000, 1.250000
1040, 50.000000, 0.000000, 1.250000
1041, 53.125000, 0.000000, 1.250000
1042, 56.250000, 0.000000, 1.250000
1043, 59.375000, 0.000000, 1.250000
1044, 62.500000, 0.000000, 1.250000
1045, 65.625000, 0.000000, 1.250000
1046, 68.750000, 0.000000, 1.250000
1047, 71.875000, 0.000000, 1.250000
1048, 75.000000, 0.000000, 1.250000
1049, 78.125000, 0.000000, 1.250000
1050, 81.250000, 0.000000, 1.250000
1051, 84.375000, 0.000000, 1.250000
1052, 87.500000, 0.000000, 1.250000
1053, 90.625000, 0.000000, 1.250000
1054, 93.750000, 0.000000, 1.250000
1055, 96.875000, 0.000000, 1.250000
1056, 100.000000, 0.000000, 1.250000
1057, 0.000000, 1.250000, 1.250000
1058, 3.125000, 1.250000, 1.250000
1059, 6.250000, 1.250000, 1.250000
1060, 9.375000, 1.250000, 1.250000
1061, 12.500000, 1.250000, 1.250000
1062, 15.625000, 1.250000, 1.250000
1063, 18.750000, 1.250000, 1.250000
1064, 21.875000, 1.250000, 1.250000
1065, 25.000000, 1.250000, 1.250000
1066, 28.125000, 1.250000, 1.250000
1067, 31.250000, 1.250000, 1.250000
1068, 34.375000, 1.250000, 1.250000
1069, 37.500000, 1.250000, 1.250000
1070, 40.625000, 1.250000, 1.250000
1071, 43.750000, 1.250000, 1.250000
1072, 46.875000, 1.250000, 1.250000
1073, 50.000000, 1.250000, 1.250000
1074, 53.125000, 1.250000, 1.250000
1075, 56.250000, 1.250000, 1.250000
1076, 59.375000, 1.250000, 1.250000
1077, 62.500000, 1.250000, 1.250000
1078, 65.625000, 1.250000, 1.250000
1079, 68.750000, 1.250000, 1.250000
1080, 71.875000, 1.250000, 1.250000
1081, 75.000000, 1.250000, 1.250000
1082, 78.125000, 1.250000, 1.250000
1083, 81.250000, 1.250000, 1.250000
1084, 84.375000, 1.250000, 1.250000
1085, 87.500000, 1.250000, 1.250000
1086, 90.625000, 1.250000, 1.250000
1087, 93.750000, 1.250000, 1.250000
1088, 96.875000, 1.250000, 1.250000
1089, 100.000000, 1.250000, 1.250000
1090, 0.000000, 2.500000, 1.250000
1091, 3.125000, 2.500000, 1.250000
1092, 6.250000, 2.500000, 1.250000
1093, 9.375000, 2.500000, 1.250000
1094, 12.500000, 2.500000, 1.250000
1095, 15.625000, 2.500000, 1.250000
1096, 18.750000, 2.500000, 1.250000
1097, 21.875000, 2.500000, 1.250000
1098, 25.000000, 2.500000, 1.250000
1099, 28.125000, 2.500000, 1.250000
1100, 31.250000, 2.500000, 1.250000
1101, 34.375000, 2.500000, 1.250000
1102, 37.500000, 2.500000, 1.250000
1103, 40.625000, 2.500000, 1.250000
1104, 43.750000, 2.500000, 1.250000
1105, 46.875000, 2.500000, 1.250000
1106, 50.000000, 2.500000, 1.250000
1107, 53.125000, 2.500000, 1.250000
1108, 56.250000, 2.500000, 1.250000
1109, 59.375000, 2.500000, 1.250000
1110, 62.500000, 2.500000, 1.250000
1111, 65.625000, 2.500000, 1.250000
1112, 68.750000, 2.500000, 1.250000
1113, 71.875000, 2.500000, 1.250000
1114, 75.000000, 2.500000, 1.250000
1115, 78.125000, 2.500000, 1.250000
1116, 81.250000, 2.500000, 1.250000
1117, 84.375000, 2.500000, 1.250000
1118, 87.500000, 2.500000, 1.250000
1119, 90.625000, 2.500000, 1.250000
1120, 93.750000, 2.500000, 1.250000
1121, 96.875000, 2.500000, 1.250000
1122, 100.000000, 2.500000, 1.250000
1123, 0.000000, 3.750000, 1.250000
1124, 3.125000, 3.750000, 1.250000
1125, 6.250000, 3.750000, 1.250000
1126, 9.375000, 3.750000, 1.250000
1127, 12.500000, 3.750000, 1.250000
1128, 15.625000, 3.750000, 1.250000
1129, 18.750000, 3.750000, 1.250000
1130, 21.875000, 3.750000, 1.250000
1131, 25.000000, 3.750000, 1.250000
1132, 28.125000, 3.750000, 1.250000
1133, 31.250000, 3.750000, 1.250000
1134, 34.375000, 3.750000, 1.250000
1135, 37.500000, 3.750000, 1.250000
1136, 40.625000, 3.750000, 1.250000
1137, 43.750000, 3.750000, 1.250000
1138, 46.875000, 3.750000, 1.250000
1139, 50.000000, 3.750000, 1.250000
1140, 53.125000, 3.750000, 1.250000
1141, 56.250000, 3.750000, 1.250000
1142, 59.375000, 3.750000, 1.250000
1143, 62.500000, 3.750000, 1.250000
1144, 65.625000, 3.750000, 1.250000
1145, 68.750000, 3.750000, 1.250000
1146, 71.875000, 3.750000, 1.250000
1147, 75.000000, 3.750000, 1.250000
1148, 78.125000, 3.750000, 1.250000
1149, 81.250000, 3.750000, 1.250000
1150, 84.375000, 3.750000, 1.250000
1151, 87.500000, 3.750000, 1.250000
1152, 90.625000, 3.750000, 1.250000
1153, 93.750000, 3.750000, 1.250000
1154, 96.875000, 3.750000, 1.250000
1155, 100.000000, 3.750000, 1.250000
1156, 0.000000, 5.000000, 1.250000
1157, 3.125000, 5.000000, 1.250000
1158, 6.250000, 5.000000, 1.250000
1159, 9.375000, 5.000000, 1.250000
1160, 12.500000, 5.000000, 1.250000
1161, 15.625000, 5.000000, 1.250000
1162, 18.750000, 5.000000, 1.250000
1163, 21.875000, 5.000000, 1.250000
1164, 25.000000, 5.000000, 1.250000
1165, 28.125000, 5.000000, 1.250000
1166, 31.250000, 5.000000, 1.250000
1167, 34.375000, 5.000000, 1.250000
1168, 37.500000, 5.000000, 1.250000
1169, 40.625000, 5.000000, 1.250000
1170, 43.750000, 5.000000, 1.250000
1171, 46.875000, 5.000000, 1.250000
1172, 50.000000, 5.000000, 1.250000
1173, 53.125000, 5.000000, 1.250000
1174, 56.250000, 5.000000, 1.250000
1175, 59.375000, 5.000000, 1.250000
1176, 62.500000, 5.000000, 1.250000
1177, 65.625000, 5.000000, 1.250000
1178, 68.750000, 5.000000, 1.250000
1179, 71.875000, 5.000000, 1.250000
1180, 75.000000, 5.000000, 1.250000
1181, 78.125000, 5.000000, 1.250000
1182, 81.250000, 5.000000, 1.250000
1183, 84.375000, 5.000000, 1.250000
1184, 87.500000, 5.000000, 1.250000
1185, 90.625000, 5.000000, 1.250000
1186, 93.750000, 5.000000, 1.250000
1187, 96.875000, 5.000000, 1.250000
1188, 100.000000, 5.000000, 1.250000
1189, 0.000000, -5.000000, 2.500000
1190, 3.125000, -5.000000, 2.500000
1191, 6.250000, -5.000000, 2.500000
1192, 9.375000, -5.000000, 2.500000
1193, 12.500000, -5.000000, 2.500000
1194, 15.625000, -5.000000, 2.500000
1195, 18.750000, -5.000000, 2.500000
1196, 21.875000, -5.000000, 2.500000
1197, 25.000000, -5.000000, 2.500000
1198, 28.125000, -5.000000, 2.500000
1199, 31.250000, -5.000000, 2.500000
1200, 34.375000, -5.000000, 2.500000
1201, 37.500000, -5.000000, 2.500000
1202, 40.625000, -5.000000, 2.500000
1203, 43.750000, -5.000000, 2.500000
1204, 46.875000, -5.000000, 2.500000
1205, 50.000000, -5.000000, 2.500000
1206, 53.125000, -5.000000, 2.500000
1207, 56.250000, -5.000000, 2.500000
1208, 59.375000, -5.000000, 2.500000
1209, 62.500000, -5.000000, 2.500000
1210, 65.625000, -5.000000, 2.500000
1211, 68.750000, -5.000000, 2.500000
1212, 71.875000, -5.000000, 2.500000
1213, 75.000000, -5.000000, 2.500000
1214, 78.125000, -5.000000, 2.500000
1215, 81.250000, -5.000000, 2.500000
1216, 84.375000, -5.000000, 2.500000
1217, 87.500000, -5.000000, 2.500000
1218, 90.625000, -5.000000, 2.500000
1219, 93.750000, -5.000000, 2.500000
1220, 96.875000, -5.000000, 2.500000
1221, 100.000000, -5.000000, 2.500000
1222, 0.000000, -3.750000, 2.500000
1223, 3.125000, -3.750000, 2.500000
1224, 6.250000, -3.750000, 2.500000
1225, 9.375000, -3.750000, 2.500000
1226, 12.500000, -3.750000, 2.500000
1227, 15.625000, -3.750000, 2.500000
1228, 18.750000, -3.750000, 2.500000
1229, 21.875000, -3.750000, 2.500000
1230, 25.000000, -3.750000, 2.500000
1231, 28.125000, -3.750000, 2.500000
1232, 31.250000, -3.750000, 2.500000
1233, 34.375000, -3.750000, 2.500000
1234, 37.500000, -3.750000, 2.500000
1235, 40.625000, -3.750000, 2.500000
1236, 43.750000, -3.750000, 2.500000
1237, 46.875000, -3.750000, 2.500000
1238, 50.000000, -3.750000, 2.500000
1239, 53.125000, -3.750000, 2.500000
1240, 56.250000, -3.750000, 2.500000
1241, 59.375000, -3.750000, 2.500000
1242, 62.500000, -3.750000, 2.500000
1243, 65.625000, -3.750000, 2.500000
1244, 68.750000, -3.750000, 2.500000
1245, 71.875000, -3.750000, 2.500000
1246, 75.000000, -3.750000, 2.500000
1247, 78.125000, -3.750000, 2.500000
1248, 81.250000, -3.750000, 2.500000
1249, 84.375000, -3.750000, 2.500000
1250, 87.500000, -3.750000, 2.500000
1251, 90.625000, -3.750000, 2.500000
1252, 93.750000, -3.750000, 2.500000
1253, 96.875000, -3.750000, 2.500000
1254, 100.000000, -3.750000, 2.500000
1255, 0.000000, -2.500000, 2.500000
1256, 3.125000, -2.500000, 2.500000
1257, 6.250000, -2.500000, 2.500000
1258, 9.375000, -2.500000, 2.500000
1259, 12.500000, -2.500000, 2.500000
1260, 15.625000, -2.500000, 2.500000
1261, 18.750000, -2.500000, 2.500000
1262, 21.875000, -2.500000, 2.500000
1263, 25.000000, -2.500000, 2.500000
1264, 28.125000, -2.500000, 2.500000
1265, 31.250000, -2.500000, 2.500000
1266, 34.375000, -2.500000, 2.500000
1267, 37.500000, -2.500000, 2.500000
1268, 40.625000, -2.500000, 2.500000
1269, 43.750000, -2.500000, 2.500000
1270, 46.875000, -2.500000, 2.500000
1271, 50.000000, -2.500000, 2.500000
1272, 53.125000, -2.500000, 2.500000
1273, 56.250000, -2.500000, 2.500000
1274, 59.375000, -2.500000, 2.500000
1275, 62.500000, -2.500000, 2.500000
1276, 65.625000, -2.500000, 2.500000
1277, 68.750000, -2.500000, 2.500000
1278, 71.875000, -2.500000, 2.500000
1279, 75.000000, -2.500000, 2.500000
1280, 78.125000, -2.500000, 2.500000
1281, 81.250000, -2.500000, 2.500000
1282, 84.375000, -2.500000, 2.500000
1283, 87.500000, -2.500000, 2.500000
1284, 90.625000, -2.500000, 2.500000
1285, 93.750000, -2.500000, 2.500000
1286, 96.875000, -2.500000, 2.500000
1287, 100.000000, -2.500000, 2.500000
1288, 0.000000, -1.250000, 2.500000
1289, 3.125000, -1.250000, 2.500000
1290, 6.250000, -1.250000, 2.500000
1291, 9.375000, -1.250000, 2.500000
1292, 12.500000, -1.250000, 2.500000
1293, 15.625000, -1.250000, 2.500000
1294, 18.750000, -1.250000, 2.500000
1295, 21.875000, -1.250000, 2.500000
1296, 25.000000, -1.250000, 2.500000
1297, 28.125000, -1.250000, 2.500000
1298, 31.250000, -1.250000, 2.500000
1299, 34.375000, -1.250000, 2.500000
1300, 37.500000, -1.250000, 2.500000
1301, 40.625000, -1.250000, 2.500000
1302, 43.750000, -1.250000, 2.500000
1303, 46.875000, -1.250000, 2.500000
1304, 50.000000, -1.250000, 2.500000
1305, 53.125000, -1.250000, 2.500000
1306, 56.250000, -1.250000, 2.500000
1307, 59.375000, -1.250000, 2.500000
1308, 62.500000, -1.250000, 2.500000
1309, 65.625000, -1.250000, 2.500000
1310, 68.750000, -1.250000, 2.500000
1311, 71.875000, -1.250000, 2.500000
1312, 75.000000, -1.250000, 2.500000
1313, 78.125000, -1.250000, 2.500000
1314, 81.250000, -1.250000, 2.500000
1315, 84.375000, -1.250000, 2.500000
1316, 87.500000, -1.250000, 2.500000
1317, 90.625000, -1.250000, 2.500000
1318, 93.750000, -1.250000, 2.500000
1319, 96.875000, -1.250000, 2.500000
1320, 100.000000, -1.250000, 2.500000
1321, 0.000000, 0.000000, 2.500000
1322, 3.125000, 0.000000, 2.500000
1323, 6.250000, 0.000000, 2.500000
1324, 9.375000, 0.000000, 2.500000
1325, 12.500000, 0.000000, 2.500000
1326, 15.625000, 0.000000, 2.500000
1327, 18.750000, 0.000000, 2.500000
1328, 21.875000, 0.000000, 2.500000
1329, 25.000000, 0.000000, 2.500000
1330, 28.125000, 0.000000, 2.500000
1331, 31.250000, 0.000000, 2.500000
1332, 34.375000, 0.000000, 2.500000
1333, 37.500000, 0.000000, 2.500000
1334, 40.625000, 0.000000, 2.500000
1335, 43.750000, 0.000000, 2.500000
1336, 46.875000, 0.000000, 2.500000
1337, 50.000000, 0.000000, 2.500000
1338, 53.125000, 0.000000, 2.500000
1339, 56.250000, 0.000000, 2.500000
1340, 59.375000, 0.000000, 2.500000
1341, 62.500000, 0.000000, 2.500000
1342, 65.625000, 0.000000, 2.500000
1343, 68.750000, 0.000000, 2.500000
1344, 71.875000, 0.000000, 2.500000
1345, 75.000000, 0.000000, 2.500000
1346, 78.125000, 0.000000, 2.500000
1347, 81.250000, 0.000000, 2.500000
1348, 84.375000, 0.000000, 2.500000
1349, 87.500000, 0.000000, 2.500000
1350, 90.625000, 0.000000, 2.500000
1351, 93.750000, 0.000000, 2.500000
1352, 96.875000, 0.000000, 2.500000
1353, 100.000000, 0.000000, 2.500000
1354, 0.000000, 1.250000, 2.500000
1355, 3.125000, 1.250000, 2.500000
1356, 6.250000, 1.250000, 2.500000
1357, 9.375000, 1.250000, 2.500000
1358, 12.500000, 1.250000, 2.500000
1359, 15.625000, 1.250000, 2.500000
1360, 18.750000, 1.250000, 2.500000
1361, 21.875000, 1.250000, 2.500000
1362, 25.000000, 1.250000, 2.500000
1363, 28.125000, 1.250000, 2.500000
1364, 31.250000, 1.250000, 2.500000
1365, 34.375000, 1.250000, 2.500000
1366, 37.500000, 1.250000, 2.500000
1367, 40.625000, 1.250000, 2.500000
1368, 43.750000, 1.250000, 2.500000
1369, 46.875000, 1.250000, 2.500000
1370, 50.000000, 1.250000, 2.500000
1371, 53.125000, 1.250000, 2.500000
1372, 56.250000, 1.250000, 2.500000
1373, 59.375000, 1.250000, 2.500000
1374, 62.500000, 1.250000, 2.500000
1375, 65.625000, 1.250000, 2.500000
1376, 68.750000, 1.250000, 2.500000
1377, 71.875000, 1.250000, 2.500000
1378, 75.000000, 1.250000, 2.500000
1379, 78.125000, 1.250000, 2.500000
1380, 81.250000, 1.250000, 2.500000
1381, 84.375000, 1.250000, 2.500000
1382, 87.500000, 1.250000, 2.500000
1383, 90.625000, 1.250000, 2.500000
1384, 93.750000, 1.250000, 2.500000
1385, 96.875000, 1.250000, 2.500000
1386, 100.000000, 1.250000, 2.500000
1387, 0.000000, 2.500000, 2.500000
1388, 3.125000, 2.500000, 2.500000
1389, 6.250000, 2.500000, 2.500000
1390, 9.375000, 2.500000, 2.500000
1391, 12.500000, 2.500000, 2.500000
1392, 15.625000, 2.500000, 2.500000
1393, 18.750000, 2.500000, 2.500000
1394, 21.875000, 2.500000, 2.500000
1395, 25.000000, 2.500000, 2.500000
1396, 28.125000, 2.500000, 2.500000
1397, 31.250000, 2.500000, 2.500000
1398, 34.375000, 2.500000, 2.500000
1399, 37.500000, 2.500000, 2.500000
1400, 40.625000, 2.500000, 2.500000
1401, 43.750000, 2.500000, 2.500000
1402, 46.875000, 2.500000, 2.500000
1403, 50.000000, 2.500000, 2.500000
1404, 53.125000, 2.500000, 2.500000
1405, 56.250000, 2.500000, 2.500000
1406, 59.375000, 2.500000, 2.500000
1407, 62.500000, 2.500000, 2.500000
1408, 65.625000, 2.500000, 2.500000
1409, 68.750000, 2.500000, 2.500000
1410, 71.875000, 2.500000, 2.500000
1411, 75.000000, 2.500000, 2.500000
1412, 78.125000, 2.500000, 2.500000
1413, 81.250000, 2.500000, 2.500000
1414, 84.375000, 2.500000, 2.500000
1415, 87.500000, 2.500000, 2.500000
1416, 90.625000, 2.500000, 2.500000
1417, 93.750000, 2.500000, 2.500000
1418, 96.875000, 2.500000, 2.500000
1419, 100.000000, 2.500000, 2.500000
1420, 0.000000, 3.750000, 2.500000
1421, 3.125000, 3.750000, 2.500000
1422, 6.250000, 3.750000, 2.500000
1423, 9.375000, 3.750000, 2.500000
1424, 12.500000, 3.750000, 2.500000
1425, 15.625000, 3.750000, 2.500000
1426, 18.750000, 3.750000, 2.500000
1427, 21.875000, 3.750000, 2.500000
1428, 25.000000, 3.750000, 2.500000
1429, 28.125000, 3.750000, 2.500000
1430, 31.250000, 3.750000, 2.500000
1431, 34.375000, 3.750000, 2.500000
1432, 37.500000, 3.750000, 2.500000
1433, 40.625000, 3.750000, 2.500000
1434, 43.750000, 3.750000, 2.500000
1435, 46.875000, 3.750000, 2.500000
1436, 50.000000, 3.750000, 2.500000
1437, 53.125000, 3.750000, 2.500000
1438, 56.250000, 3.750000, 2.500000
1439, 59.375000, 3.750000, 2.500000
1440, 62.500000, 3.750000, 2.500000
1441, 65.625000, 3.750000, 2.500000
1442, 68.750000, 3.750000, 2.500000
1443, 71.875000, 3.750000, 2.500000
1444, 75.000000, 3.750000, 2.500000
1445, 78.125000, 3.750000, 2.500000
1446, 81.250000, 3.750000, 2.500000
1447, 84.375000, 3.750000, 2.500000
1448, 87.500000, 3.750000, 2.500000
1449, 90.625000, 3.750000, 2.500000
1450, 93.750000, 3.750000, 2.500000
1451, 96.875000, 3.750000, 2.500000
1452, 100.000000, 3.750000, 2.500000
1453, 0.000000, 5.000000, 2.500000
1454, 3.125000, 5.000000, 2.500000
1455, 6.250000, 5.000000, 2.500000
1456, 9.375000, 5.000000, 2.500000
1457, 12.500000, 5.000000, 2.500000
1458, 15.625000, 5.000000, 2.500000
1459, 18.750000, 5.000000, 2.500000
1460, 21.875000, 5.000000, 2.500000
1461, 25.000000, 5.000000, 2.500000
1462, 28.125000, 5.000000, 2.500000
1463, 31.250000, 5.000000, 2.500000
1464, 34.375000, 5.000000, 2.500000
1465, 37.500000, 5.000000, 2.500000
1466, 40.625000, 5.000000, 2.500000
1467, 43.750000, 5.000000, 2.500000
1468, 46.875000, 5.000000, 2.500000
1469, 50.000000, 5.000000, 2.500000
1470, 53.125000, 5.000000, 2.500000
1471, 56.250000, 5.000000, 2.500000
1472, 59.375000, 5.000000, 2.500000
1473, 62.500000, 5.000000, 2.500000
1474, 65.625000, 5.000000, 2.500000
1475, 68.750000, 5.000000, 2.500000
1476, 71.875000, 5.000000, 2.500000
1477, 75.000000, 5.000000, 2.500000
1478, 78.125000, 5.000000, 2.500000
1479, 81.250000, 5.000000, 2.500000
1480, 84.375000, 5.000000, 2.500000
1481, 87.500000, 5.000000, 2.500000
1482, 90.625000, 5.000000, 2.500000
1483, 93.750000, 5.000000, 2.500000
1484, 96.875000, 5.000000, 2.500000
1485, 100.000000, 5.000000, 2.500000
*ELEMENT, TYPE=C3D20, ELSET=EALL
1, 1, 3, 69, 67, 595, 597, 663, 661, 2, 36, 68, 34, 596, 630, 662
628, 298, 300, 366, 364
2, 3, 5, 71, 69, 597, 599, 665, 663, 4, 38, 70, 36, 598, 632, 664
630, 300, 302, 368, 366
3, 5, 7, 73, 71, 599, 601, 667, 665, 6, 40, 72, 38, 600, 634, 666
632, 302, 304, 370, 368
4, 7, 9, 75, 73, 601, 603, 669, 667, 8, 42, 74, 40, 602, 636, 668
634, 304, 306, 372, 370
5, 9, 11, 77, 75, 603, 605, 671, 669, 10, 44, 76, 42, 604, 638, 670
636, 306, 308, 374, 372
6, 11, 13, 79, 77, 605, 607, 673, 671, 12, 46, 78, 44, 606, 640, 672
638, 308, 310, 376, 374
7, 13, 15, 81, 79, 607, 609, 675, 673, 14, 48, 80, 46, 608, 642, 674
640, 310, 312, 378, 376
8, 15, 17, 83, 81, 609, 611, 677, 675, 16, 50, 82, 48, 610, 644, 676
642, 312, 314, 380, 378
9, 17, 19, 85, 83, 611, 613, 679, 677, 18, 52, 84, 50, 612, 646, 678
644, 314, 316, 382, 380
10, 19, 21, 87, 85, 613, 615, 681, 679, 20, 54, 86, 52, 614, 648, 680
646, 316, 318, 384, 382
11, 21, 23, 89, 87, 615, 617, 683, 681, 22, 56, 88, 54, 616, 650, 682
648, 318, 320, 386, 384
12, 23, 25, 91, 89, 617, 619, 685, 683, 24, 58, 90, 56, 618, 652, 684
650, 320, 322, 388, 386
13, 25, 27, 93, 91, 619, 621, 687, 685, 26, 60, 92, 58, 620, 654, 686
652, 322, 324, 390, 388
14, 27, 29, 95, 93, 621, 623, 689, 687, 28, 62, 94, 60, 622, 656, 688
654, 324, 326, 392, 390
15, 29, 31, 97, 95, 623, 625, 691, 689, 30, 64, 96, 62, 624, 658, 690
656, 326, 328, 394, 392
16, 31, 33, 99, 97, 625, 627, 693, 691, 32, 66, 98, 64, 626, 660, 692
658, 328, 330, 396, 394
17, 67, 69, 135, 133, 661, 663, 729, 727, 68, 102, 134, 100, 662, 696, 728
694, 364, 366, 432, 430
18, 69, 71, 137, 135, 663, 665, 731, 729, 70, 104, 136, 102, 664, 698, 730
696, 366, 368, 434, 432
19, 71, 73, 139, 137, 665, 667, 733, 731, 72, 106, 138, 104, 666, 700, 732
698, 368, 370, 436, 434
20, 73, 75, 141, 139, 667, 669, 735, 733, 74, 108, 140, 106, 668, 702, 734
700, 370, 372, 438, 436
21, 75, 77, 143, 141, 669, 671, 737, 735, 76, 110, 142, 108, 670, 704, 736
702, 372, 374, 440, 438
22, 77, 79, 145, 143, 671, 673, 739, 737, 78, 112, 144, 110, 672, 706, 738
704, 374, 376, 442, 440
23, 79, 81, 147, 145, 673, 675, 741, 739, 80, 114, 146, 112, 674, 708, 740
706, 376, 378, 444, 442
24, 81, 83, 149, 147, 675, 677, 743, 741, 82, 116, 148, 114, 676, 710, 742
708, 378, 380, 446, 444
25, 83, 85, 151, 149, 677, 679, 745, 743, 84, 118, 150, 116, 678, 712, 744
710, 380, 382, 448, 446
26, 85, 87, 153, 151, 679, 681, 747, 745, 86, 120, 152, 118, 680, 714, 746
712, 382, 384, 450, 448
27, 87, 89, 155, 153, 681, 683, 749, 747, 88, 122, 154, 120, 682, 716, 748
714, 384, 386, 452, 450
28, 89, 91, 157, 155, 683, 685, 751, 749, 90, 124, 156, 122, 684, 718, 750
716, 386, 388, 454, 452
29, 91, 93, 159, 157, 685, 687, 753, 751, 92, 126, 158, 124, 686, 720, 752
718, 388, 390, 456, 454
30, 93, 95, 161, 159, 687, 689, 755, 753, 94, 128, 160, 126, 688, 722, 754
720, 390, 392, 458, 456
31, 95, 97, 163, 161, 689, 691, 757, 755, 96, 130, 162, 128, 690, 724, 756
722, 392, 394, 460, 458
32, 97, 99, 165, 163, 691, 693, 759, 757, 98, 132, 164, 130, 692, 726, 758
724, 394, 396, 462, 460
33, 133, 135, 201, 199, 727, 729, 795, 793, 134, 168, 200, 166, 728, 762, 794
760, 430, 432, 498, 496
34, 135, 137, 203, 201, 729, 731, 797, 795, 136, 170, 202, 168, 730, 764, 796
762, 432, 434, 500, 498
35, 137, 139, 205, 203, 731, 733, 799, 797, 138, 172, 204, 170, 732, 766, 798
764, 434, 436, 502, 500
36, 139, 141, 207, 205, 733, 735, 801, 799, 140, 174, 206, 172, 734, 768, 800
766, 436, 438, 504, 502
37, 141, 143, 209, 207, 735, 737, 803, 801, 142, 176, 208, 174, 736, 770, 802
768, 438, 440, 506, 504
38, 143, 145, 211, 209, 737, 739, 805, 803, 144, 178, 210, 176, 738, 772, 804
770, 440, 442, 508, 506
39, 145, 147, 213, 211, 739, 741, 807, 805, 146, 180, 212, 178, 740, 774, 806
772, 442, 444, 510, 508
40, 147, 149, 215, 213, 741, 743, 809, 807, 148, 182, 214, 180, 742, 776, 808
774, 444, 446, 512, 510
41, 149, 151, 217, 215, 743, 745, 811, 809, 150, 184, 216, 182, 744, 778, 810
776, 446, 448, 514, 512
42, 151, 153, 219, 217, 745, 747, 813, 811, 152, 186, 218, 184, 746, 780, 812
778, 448, 450, 516, 514
43, 153, 155, 221, 219, 747, 749, 815, 813, 154, 188, 220, 186, 748, 782, 814
780, 450, 452, 518, 516
44, 155, 157, 223, 221, 749, 751, 817, 815, 156, 190, 222, 188, 750, 784, 816
782, 452, 454, 520, 518
45, 157, 159, 225, 223, 751, 753, 819, 817, 158, 192, 224, 190, 752, 786, 818
784, 454, 456, 522, 520
46, 159, 161, 227, 225, 753, 755, 821, 819, 160, 194, 226, 192, 754, 788, 820
786, 456, 458, 524, 522
47, 161, 163, 229, 227, 755, 757, 823, 821, 162, 196, 228, 194, 756, 790, 822
788, 458, 460, 526, 524
48, 163, 165, 231, 229, 757, 759, 825, 823, 164, 198, 230, 196, 758, 792, 824
790, 460, 462, 528, 526
49, 199, 201, 267, 265, 793, 795, 861, 859, 200, 234, 266, 232, 794, 828, 860
826, 496, 498, 564, 562
50, 201, 203, 269, 267, 795, 797, 863, 861, 202, 236, 268, 234, 796, 830, 862
828, 498, 500, 566, 564
51, 203, 205, 271, 269, 797, 799, 865, 863, 204, 238, 270, 236, 798, 832, 864
830, 500, 502, 568, 566
52, 205, 207, 273, 271, 799, 801, 867, 865, 206, 240, 272, 238, 800, 834, 866
832, 502, 504, 570, 568
53, 207, 209, 275, 273, 801, 803, 869, 867, 208, 242, 274, 240, 802, 836, 868
834, 504, 506, 572, 570
54, 209, 211, 277, 275, 803, 805, 871, 869, 210, 244, 276, 242, 804, 838, 870
836, 506, 508, 574, 572
55, 211, 213, 279, 277, 805, 807, 873, 871, 212, 246, 278, 244, 806, 840, 872
838, 508, 510, 576, 574
56, 213, 215, 281, 279, 807, 809, 875, 873, 214, 248, 280, 246, 808, 842, 874
840, 510, 512, 578, 576
57, 215, 217, 283, 281, 809, 811, 877, 875, 216, 250, 282, 248, 810, 844, 876
842, 512, 514, 580, 578
58, 217, 219, 285, 283, 811, 813, 879, 877, 218, 252, 284, 250, 812, 846, 878
844, 514, 516, 582, 580
59, 219, 221, 287, 285, 813, 815, 881, 879, 220, 254, 286, 252, 814, 848, 880
846, 516, 518, 584, 582
60, 221, 223, 289, 287, 815, 817, 883, 881, 222, 256, 288, 254, 816, 850, 882
848, 518, 520, 586, 584
61, 223, 225, 291, 289, 817, 819, 885, 883, 224, 258, 290, 256, 818, 852, 884
850, 520, 522, 588, 586
62, 225, 227, 293, 291, 819, 821, 887, 885, 226, 260, 292, 258, 820, 854, 886
852, 522, 524, 590, 588
63, 227, 229, 295, 293, 821, 823, 889, 887, 228, 262, 294, 260, 822, 856, 888
854, 524, 526, 592, 590
64, 229, 231, 297, 295, 823, 825, 891, 889, 230, 264, 296, 262, 824, 858, 890
856, 526, 528, 594, 592
65, 595, 597, 663, 661, 1189, 1191, 1257, 1255, 596, 630, 662, 628, 1190, 1224, 1256
1222, 892, 894, 960, 958
66, 597, 599, 665, 663, 1191, 1193, 1259, 1257, 598, 632, 664, 630, 1192, 1226, 1258
1224, 894, 896, 962, 960
67, 599, 601, 667, 665, 1193, 1195, 1261, 1259, 600, 634, 666, 632, 1194, 1228, 1260
1226, 896, 898, 964, 962
68, 601, 603, 669, 667, 1195, 1197, 1263, 1261, 602, 636, 668, 634, 1196, 1230, 1262
1228, 898, 900, 966, 964
69, 603, 605, 671, 669, 1197, 1199, 1265, 1263, 604, 638, 670, 636, 1198, 1232, 1264
1230, 900, 902, 968, 966
70, 605, 607, 673, 671, 1199, 1201, 1267, 1265, 606, 640, 672, 638, 1200, 1234, 1266
1232, 902, 904, 970, 968
71, 607, 609, 675, 673, 1201, 1203, 1269, 1267, 608, 642, 674, 640, 1202, 1236, 1268
1234, 904, 906, 972, 970
72, 609, 611, 677, 675, 1203, 1205, 1271, 1269, 610, 644, 676, 642, 1204, 1238, 1270
1236, 906, 908, 974, 972
73, 611, 613, 679, 677, 1205, 1207, 1273, 1271, 612, 646, 678, 644, 1206, 1240, 1272
1238, 908, 910, 976, 974
74, 613, 615, 681, 679, 1207, 1209, 1275, 1273, 614, 648, 680, 646, 1208, 1242, 1274
1240, 910, 912, 978, 976
75, 615, 617, 683, 681, 1209, 1211, 1277, 1275, 616, 650, 682, 648, 1210, 1244, 1276
1242, 912, 914, 980, 978
76, 617, 619, 685, 683, 1211, 1213, 1279, 1277, 618, 652, 684, 650, 1212, 1246, 1278
1244, 914, 916, 982, 980
77, 619, 621, 687, 685, 1213, 1215, 1281, 1279, 620, 654, 686, 652, 1214, 1248, 1280
1246, 916, 918, 984, 982
78, 621, 623, 689, 687, 1215, 1217, 1283, 1281, 622, 656, 688, 654, 1216, 1250, 1282
1248, 918, 920, 986, 984
79, 623, 625, 691, 689, 1217, 1219, 1285, 1283, 624, 658, 690, 656, 1218, 1252, 1284
1250, 920, 922, 988, 986
80, 625, 627, 693, 691, 1219, 1221, 1287, 1285, 626, 660, 692, 658, 1220, 1254, 1286
1252, 922, 924, 990, 988
81, 661, 663, 729, 727, 1255, 1257, 1323, 1321, 662, 696, 728, 694, 1256, 1290, 1322
1288, 958, 960, 1026, 1024
82, 663, 665, 731, 729, 1257, 1259, 1325, 1323, 664, 698, 730, 696, 1258, 1292, 1324
1290, 960, 962, 1028, 1026
83, 665, 667, 733, 731, 1259, 1261, 1327, 1325, 666, 700, 732, 698, 1260, 1294, 1326
1292, 962, 964, 1030, 1028
84, 667, 669, 735, 733, 1261, 1263, 1329, 1327, 668, 702, 734, 700, 1262, 1296, 1328
1294, 964, 966, 1032, 1030
85, 669, 671, 737, 735, 1263, 1265, 1331, 1329, 670, 704, 736, 702, 1264, 1298, 1330
1296, 966, 968, 1034, 1032
86, 671, 673, 739, 737, 1265, 1267, 1333, 1331, 672, 706, 738, 704, 1266, 1300, 1332
1298, 968, 970, 1036, 1034
87, 673, 675, 741, 739, 1267, 1269, 1335, 1333, 674, 708, 740, 706, 1268, 1302, 1334
1300, 970, 972, 1038, 1036
88, 675, 677, 743, 741, 1269, 1271, 1337, 1335, 676, 710, 742, 708, 1270, 1304, 1336
1302, 972, 974, 1040, 1038
89, 677, 679, 745, 743, 1271, 1273, 1339, 1337, 678, 712, 744, 710, 1272, 1306, 1338
1304, 974, 976, 1042, 1040
90, 679, 681, 747, 745, 1273, 1275, 1341, 1339, 680, 714, 746, 712, 1274, 1308, 1340
1306, 976, 978, 1044, 1042
91, 681, 683, 749, 747, 1275, 1277, 1343, 1341, 682, 716, 748, 714, 1276, 1310, 1342
1308, 978, 980, 1046, 1044
92, 683, 685, 751, 749, 1277, 1279, 1345, 1343, 684, 718, 750, 716, 1278, 1312, 1344
1310, 980, 982, 1048, 1046
93, 685, 687, 753, 751, 1279, 1281, 1347, 1345, 686, 720, 752, 718, 1280, 1314, 1346
1312, 982, 984, 1050, 1048
94, 687, 689, 755, 753, 1281, 1283, 1349, 1347, 688, 722, 754, 720, 1282, 1316, 1348
1314, 984, 986, 1052, 1050
95, 689, 691, 757, 755, 1283, 1285, 1351, 1349, 690, 724, 756, 722, 1284, 1318, 1350
1316, 986, 988, 1054, 1052
96, 691, 693, 759, 757, 1285, 1287, 1353, 1351, 692, 726, 758, 724, 1286, 1320, 1352
1318, 988, 990, 1056, 1054
97, 727, 729, 795, 793, 1321, 1323, 1389, 1387, 728, 762, 794, 760, 1322, 1356, 1388
1354, 1024, 1026, 1092, 1090
98, 729, 731, 797, 795, 1323, 1325, 1391, 1389, 730, 764, 796, 762, 1324, 1358, 1390
1356, 1026, 1028, 1094, 1092
99, 731, 733, 799, 797, 1325, 1327, 1393, 1391, 732, 766, 798, 764, 1326, 1360, 1392
1358, 1028, 1030, 1096, 1094
100, 733, 735, 801, 799, 1327, 1329, 1395, 1393, 734, 768, 800, 766, 1328, 1362, 1394
1360, 1030, 1032, 1098, 1096
101, 735, 737, 803, 801, 1329, 1331, 1397, 1395, 736, 770, 802, 768, 1330, 1364, 1396
1362, 1032, 1034, 1100, 1098
102, 737, 739, 805, 803, 1331, 1333, 1399, 1397, 738, 772, 804, 770, 1332, 1366, 1398
1364, 1034, 1036, 1102, 1100
103, 739, 741, 807, 805, 1333, 1335, 1401, 1399, 740, 774, 806, 772, 1334, 1368, 1400
1366, 1036, 1038, 1104, 1102
104, 741, 743, 809, 807, 1335, 1337, 1403, 1401, 742, 776, 808, 774, 1336, 1370, 1402
1368, 1038, 1040, 1106, 1104
105, 743, 745, 811, 809, 1337, 1339, 1405, 1403, 744, 778, 810, 776, 1338, 1372, 1404
1370, 1040, 1042, 1108, 1106
106, 745, 747, 813, 811, 1339, 1341, 1407, 1405, 746, 780, 812, 778, 1340, 1374, 1406
1372, 1042, 1044, 1110, 1108
107, 747, 749, 815, 813, 1341, 1343, 1409, 1407, 748, 782, 814, 780, 1342, 1376, 1408
1374, 1044, 1046, 1112, 1110
108, 749, 751, 817, 815, 1343, 1345, 1411, 1409, 750, 784, 816, 782, 1344, 1378, 1410
1376, 1046, 1048, 1114, 1112
109, 751, 753, 819, 817, 1345, 1347, 1413, 1411, 752, 786, 818, 784, 1346, 1380, 1412
1378, 1048, 1050, 1116, 1114
110, 753, 755, 821, 819, 1347, 1349, 1415, 1413, 754, 788, 820, 786, 1348, 1382, 1414
1380, 1050, 1052, 1118, 1116
111, 755, 757, 823, 821, 1349, 1351, 1417, 1415, 756, 790, 822, 788, 1350, 1384, 1416
1382, 1052, 1054, 1120, 1118
112, 757, 759, 825, 823, 1351, 1353, 1419, 1417, 758, 792, 824, 790, 1352, 1386, 1418
1384, 1054, 1056, 1122, 1120
113, 793, 795, 861, 859, 1387, 1389, 1455, 1453, 794, 828, 860, 826, 1388, 1422, 1454
1420, 1090, 1092, 1158, 1156
114, 795, 797, 863, 861, 1389, 1391, 1457, 1455, 796, 830, 862, 828, 1390, 1424, 1456
1422, 1092, 1094, 1160, 1158
115, 797, 799, 865, 863, 1391, 1393, 1459, 1457, 798, 832, 864, 830, 1392, 1426, 1458
1424, 1094, 1096, 1162, 1160
116, 799, 801, 867, 865, 1393, 1395, 1461, 1459, 800, 834, 866, 832, 1394, 1428, 1460
1426, 1096, 1098, 1164, 1162
117, 801, 803, 869, 867, 1395, 1397, 1463, 1461, 802, 836, 868, 834, 1396, 1430, 1462
1428, 1098, 1100, 1166, 1164
118, 803, 805, 871, 869, 1397, 1399, 1465, 1463, 804, 838, 870, 836, 1398, 1432, 1464
1430, 1100, 1102, 1168, 1166
119, 805, 807, 873, 871, 1399, 1401, 1467, 1465, 806, 840, 872, 838, 1400, 1434, 1466
1432, 1102, 1104, 1170, 1168
120, 807, 809, 875, 873, 1401, 1403, 1469, 1467, 808, 842, 874, 840, 1402, 1436, 1468
1434, 1104, 1106, 1172, 1170
121, 809, 811, 877, 875, 1403, 1405, 1471, 1469, 810, 844, 876, 842, 1404, 1438, 1470
1436, 1106, 1108, 1174, 1172
122, 811, 813, 879, 877, 1405, 1407, 1473, 1471, 812, 846, 878, 844, 1406, 1440, 1472
1438, 1108, 1110, 1176, 1174
123, 813, 815, 881, 879, 1407, 1409, 1475, 1473, 814, 848, 880, 846, 1408, 1442, 1474
1440, 1110, 1112, 1178, 1176
124, 815, 817, 883, 881, 1409, 1411, 1477, 1475, 816, 850, 882, 848, 1410, 1444, 1476
1442, 1112, 1114, 1180, 1178
125, 817, 819, 885, 883, 1411, 1413, 1479, 1477, 818, 852, 884, 850, 1412, 1446, 1478
1444, 1114, 1116, 1182, 1180
126, 819, 821, 887, 885, 1413, 1415, 1481, 1479, 820, 854, 886, 852, 1414, 1448, 1480
1446, 1116, 1118, 1184, 1182
127, 821, 823, 889, 887, 1415, 1417, 1483, 1481, 822, 856, 888, 854, 1416, 1450, 1482
1448, 1118, 1120, 1186, 1184
128, 823, 825, 891, 889, 1417, 1419, 1485, 1483, 824, 858, 890, 856, 1418, 1452, 1484
1450, 1120, 1122, 1188, 1186
*NSET, NSET=NROOT
1, 34, 67, 100, 133, 166, 199, 232, 265, 298, 331, 364, 397, 430, 463, 496
529, 562, 595, 628, 661, 694, 727, 760, 793, 826, 859, 892, 925, 958, 991, 1024
1057, 1090, 1123, 1156, 1189, 1222, 1255, 1288, 1321, 1354, 1387, 1420, 1453
*NSET, NSET=NTIP
33, 66, 99, 132, 165, 198, 231, 264, 297, 330, 363, 396, 429, 462, 495, 528
561, 594, 627, 660, 693, 726, 759, 792, 825, 858, 891, 924, 957, 990, 1023, 1056
1089, 1122, 1155, 1188, 1221, 1254, 1287, 1320, 1353, 1386, 1419, 1452, 1485
** Steel, units mm/N/MPa/tonne per mm^3
*MATERIAL, NAME=STEEL
*ELASTIC
210000.0, 0.3
*DENSITY
7.850e-09
*SOLID SECTION, ELSET=EALL, MATERIAL=STEEL
** Fully clamp the root face x=0 (all DOF)
*BOUNDARY
NROOT, 1, 6, 0.0
*STEP
*STATIC
** Total tip force -1000.0 N in y, equally distributed over 45 NTIP nodes
*CLOAD
33, 2, -22.222222
66, 2, -22.222222
99, 2, -22.222222
132, 2, -22.222222
165, 2, -22.222222
198, 2, -22.222222
231, 2, -22.222222
264, 2, -22.222222
297, 2, -22.222222
330, 2, -22.222222
363, 2, -22.222222
396, 2, -22.222222
429, 2, -22.222222
462, 2, -22.222222
495, 2, -22.222222
528, 2, -22.222222
561, 2, -22.222222
594, 2, -22.222222
627, 2, -22.222222
660, 2, -22.222222
693, 2, -22.222222
726, 2, -22.222222
759, 2, -22.222222
792, 2, -22.222222
825, 2, -22.222222
858, 2, -22.222222
891, 2, -22.222222
924, 2, -22.222222
957, 2, -22.222222
990, 2, -22.222222
1023, 2, -22.222222
1056, 2, -22.222222
1089, 2, -22.222222
1122, 2, -22.222222
1155, 2, -22.222222
1188, 2, -22.222222
1221, 2, -22.222222
1254, 2, -22.222222
1287, 2, -22.222222
1320, 2, -22.222222
1353, 2, -22.222222
1386, 2, -22.222222
1419, 2, -22.222222
1452, 2, -22.222222
1485, 2, -22.222232
*NODE PRINT, NSET=NTIP
U
*NODE PRINT, NSET=NROOT
RF
*END STEP
