*HEADING
Cantilever beam static deflection
**
*NODE
1, 0.0000, -5.0000, -2.5000
2, 0.0000, -5.0000, -1.2500
3, 0.0000, -5.0000, 0.0000
4, 0.0000, -5.0000, 1.2500
5, 0.0000, -5.0000, 2.5000
6, 0.0000, -3.7500, -2.5000
7, 0.0000, -3.7500, -1.2500
8, 0.0000, -3.7500, 0.0000
9, 0.0000, -3.7500, 1.2500
10, 0.0000, -3.7500, 2.5000
11, 0.0000, -2.5000, -2.5000
12, 0.0000, -2.5000, -1.2500
13, 0.0000, -2.5000, 0.0000
14, 0.0000, -2.5000, 1.2500
15, 0.0000, -2.5000, 2.5000
16, 0.0000, -1.2500, -2.5000
17, 0.0000, -1.2500, -1.2500
18, 0.0000, -1.2500, 0.0000
19, 0.0000, -1.2500, 1.2500
20, 0.0000, -1.2500, 2.5000
21, 0.0000, 0.0000, -2.5000
22, 0.0000, 0.0000, -1.2500
23, 0.0000, 0.0000, 0.0000
24, 0.0000, 0.0000, 1.2500
25, 0.0000, 0.0000, 2.5000
26, 0.0000, 1.2500, -2.5000
27, 0.0000, 1.2500, -1.2500
28, 0.0000, 1.2500, 0.0000
29, 0.0000, 1.2500, 1.2500
30, 0.0000, 1.2500, 2.5000
31, 0.0000, 2.5000, -2.5000
32, 0.0000, 2.5000, -1.2500
33, 0.0000, 2.5000, 0.0000
34, 0.0000, 2.5000, 1.2500
35, 0.0000, 2.5000, 2.5000
36, 0.0000, 3.7500, -2.5000
37, 0.0000, 3.7500, -1.2500
38, 0.0000, 3.7500, 0.0000
39, 0.0000, 3.7500, 1.2500
40, 0.0000, 3.7500, 2.5000
41, 0.0000, 5.0000, -2.5000
42, 0.0000, 5.0000, -1.2500
43, 0.0000, 5.0000, 0.0000
44, 0.0000, 5.0000, 1.2500
45, 0.0000, 5.0000, 2.5000
46, 3.1250, -5.0000, -2.5000
47, 3.1250, -5.0000, -1.2500
48, 3.1250, -5.0000, 0.0000
49, 3.1250, -5.0000, 1.2500
50, 3.1250, -5.0000, 2.5000
51, 3.1250, -3.7500, -2.5000
52, 3.1250, -3.7500, -1.2500
53, 3.1250, -3.7500, 0.0000
54, 3.1250, -3.7500, 1.2500
55, 3.1250, -3.7500, 2.5000
56, 3.1250, -2.5000, -2.5000
57, 3.1250, -2.5000, -1.2500
58, 3.1250, -2.5000, 0.0000
59, 3.1250, -2.5000, 1.2500
60, 3.1250, -2.5000, 2.5000
61, 3.1250, -1.2500, -2.5000
62, 3.1250, -1.2500, -1.2500
63, 3.1250, -1.2500, 0.0000
64, 3.1250, -1.2500, 1.2500
65, 3.1250, -1.2500, 2.5000
66, 3.1250, 0.0000, -2.5000
67, 3.1250, 0.0000, -1.2500
68, 3.1250, 0.0000, 0.0000
69, 3.1250, 0.0000, 1.2500
70, 3.1250, 0.0000, 2.5000
71, 3.1250, 1.2500, -2.5000
72, 3.1250, 1.2500, -1.2500
73, 3.1250, 1.2500, 0.0000
74, 3.1250, 1.2500, 1.2500
75, 3.1250, 1.2500, 2.5000
76, 3.1250, 2.5000, -2.5000
77, 3.1250, 2.5000, -1.2500
78, 3.1250, 2.5000, 0.0000
79, 3.1250, 2.5000, 1.2500
80, 3.1250, 2.5000, 2.5000
81, 3.1250, 3.7500, -2.5000
82, 3.1250, 3.7500, -1.2500
83, 3.1250, 3.7500, 0.0000
84, 3.1250, 3.7500, 1.2500
85, 3.1250, 3.7500, 2.5000
86, 3.1250, 5.0000, -2.5000
87, 3.1250, 5.0000, -1.2500
88, 3.1250, 5.0000, 0.0000
89, 3.1250, 5.0000, 1.2500
90, 3.1250, 5.0000, 2.5000
91, 6.2500, -5.0000, -2.5000
92, 6.2500, -5.0000, -1.2500
93, 6.2500, -5.0000, 0.0000
94, 6.2500, -5.0000, 1.2500
95, 6.2500, -5.0000, 2.5000
96, 6.2500, -3.7500, -2.5000
97, 6.2500, -3.7500, -1.2500
98, 6.2500, -3.7500, 0.0000
99, 6.2500, -3.7500, 1.2500
100, 6.2500, -3.7500, 2.5000
101, 6.2500, -2.5000, -2.5000
102, 6.2500, -2.5000, -1.2500
103, 6.2500, -2.5000, 0.0000
104, 6.2500, -2.5000, 1.2500
105, 6.2500, -2.5000, 2.5000
106, 6.2500, -1.2500, -2.5000
107, 6.2500, -1.2500, -1.2500
108, 6.2500, -1.2500, 0.0000
109, 6.2500, -1.2500, 1.2500
110, 6.2500, -1.2500, 2.5000
111, 6.2500, 0.0000, -2.5000
112, 6.2500, 0.0000, -1.2500
113, 6.2500, 0.0000, 0.0000
114, 6.2500, 0.0000, 1.2500
115, 6.2500, 0.0000, 2.5000
116, 6.2500, 1.2500, -2.5000
117, 6.2500, 1.2500, -1.2500
118, 6.2500, 1.2500, 0.0000
119, 6.2500, 1.2500, 1.2500
120, 6.2500, 1.2500, 2.5000
121, 6.2500, 2.5000, -2.5000
122, 6.2500, 2.5000, -1.2500
123, 6.2500, 2.5000, 0.0000
124, 6.2500, 2.5000, 1.2500
125, 6.2500, 2.5000, 2.5000
126, 6.2500, 3.7500, -2.5000
127, 6.2500, 3.7500, -1.2500
128, 6.2500, 3.7500, 0.0000
129, 6.2500, 3.7500, 1.2500
130, 6.2500, 3.7500, 2.5000
131, 6.2500, 5.0000, -2.5000
132, 6.2500, 5.0000, -1.2500
133, 6.2500, 5.0000, 0.0000
134, 6.2500, 5.0000, 1.2500
135, 6.2500, 5.0000, 2.5000
136, 9.3750, -5.0000, -2.5000
137, 9.3750, -5.0000, -1.2500
138, 9.3750, -5.0000, 0.0000
139, 9.3750, -5.0000, 1.2500
140, 9.3750, -5.0000, 2.5000
141, 9.3750, -3.7500, -2.5000
142, 9.3750, -3.7500, -1.2500
143, 9.3750, -3.7500, 0.0000
144, 9.3750, -3.7500, 1.2500
145, 9.3750, -3.7500, 2.5000
146, 9.3750, -2.5000, -2.5000
147, 9.3750, -2.5000, -1.2500
148, 9.3750, -2.5000, 0.0000
149, 9.3750, -2.5000, 1.2500
150, 9.3750, -2.5000, 2.5000
151, 9.3750, -1.2500, -2.5000
152, 9.3750, -1.2500, -1.2500
153, 9.3750, -1.2500, 0.0000
154, 9.3750, -1.2500, 1.2500
155, 9.3750, -1.2500, 2.5000
156, 9.3750, 0.0000, -2.5000
157, 9.3750, 0.0000, -1.2500
158, 9.3750, 0.0000, 0.0000
159, 9.3750, 0.0000, 1.2500
160, 9.3750, 0.0000, 2.5000
161, 9.3750, 1.2500, -2.5000
162, 9.3750, 1.2500, -1.2500
163, 9.3750, 1.2500, 0.0000
164, 9.3750, 1.2500, 1.2500
165, 9.3750, 1.2500, 2.5000
166, 9.3750, 2.5000, -2.5000
167, 9.3750, 2.5000, -1.2500
168, 9.3750, 2.5000, 0.0000
169, 9.3750, 2.5000, 1.2500
170, 9.3750, 2.5000, 2.5000
171, 9.3750, 3.7500, -2.5000
172, 9.3750, 3.7500, -1.2500
173, 9.3750, 3.7500, 0.0000
174, 9.3750, 3.7500, 1.2500
175, 9.3750, 3.7500, 2.5000
176, 9.3750, 5.0000, -2.5000
177, 9.3750, 5.0000, -1.2500
178, 9.3750, 5.0000, 0.0000
179, 9.3750, 5.0000, 1.2500
180, 9.3750, 5.0000, 2.5000
181, 12.5000, -5.0000, -2.5000
182, 12.5000, -5.0000, -1.2500
183, 12.5000, -5.0000, 0.0000
184, 12.5000, -5.0000, 1.2500
185, 12.5000, -5.0000, 2.5000
186, 12.5000, -3.7500, -2.5000
187, 12.5000, -3.7500, -1.2500
188, 12.5000, -3.7500, 0.0000
189, 12.5000, -3.7500, 1.2500
190, 12.5000, -3.7500, 2.5000
191, 12.5000, -2.5000, -2.5000
192, 12.5000, -2.5000, -1.2500
193, 12.5000, -2.5000, 0.0000
194, 12.5000, -2.5000, 1.2500
195, 12.5000, -2.5000, 2.5000
196, 12.5000, -1.2500, -2.5000
197, 12.5000, -1.2500, -1.2500
198, 12.5000, -1.2500, 0.0000
199, 12.5000, -1.2500, 1.2500
200, 12.5000, -1.2500, 2.5000
201, 12.5000, 0.0000, -2.5000
202, 12.5000, 0.0000, -1.2500
203, 12.5000, 0.0000, 0.0000
204, 12.5000, 0.0000, 1.2500
205, 12.5000, 0.0000, 2.5000
206, 12.5000, 1.2500, -2.5000
207, 12.5000, 1.2500, -1.2500
208, 12.5000, 1.2500, 0.0000
209, 12.5000, 1.2500, 1.2500
210, 12.5000, 1.2500, 2.5000
211, 12.5000, 2.5000, -2.5000
212, 12.5000, 2.5000, -1.2500
213, 12.5000, 2.5000, 0.0000
214, 12.5000, 2.5000, 1.2500
215, 12.5000, 2.5000, 2.5000
216, 12.5000, 3.7500, -2.5000
217, 12.5000, 3.7500, -1.2500
218, 12.5000, 3.7500, 0.0000
219, 12.5000, 3.7500, 1.2500
220, 12.5000, 3.7500, 2.5000
221, 12.5000, 5.0000, -2.5000
222, 12.5000, 5.0000, -1.2500
223, 12.5000, 5.0000, 0.0000
224, 12.5000, 5.0000, 1.2500
225, 12.5000, 5.0000, 2.5000
226, 15.6250, -5.0000, -2.5000
227, 15.6250, -5.0000, -1.2500
228, 15.6250, -5.0000, 0.0000
229, 15.6250, -5.0000, 1.2500
230, 15.6250, -5.0000, 2.5000
231, 15.6250, -3.7500, -2.5000
232, 15.6250, -3.7500, -1.2500
233, 15.6250, -3.7500, 0.0000
234, 15.6250, -3.7500, 1.2500
235, 15.6250, -3.7500, 2.5000
236, 15.6250, -2.5000, -2.5000
237, 15.6250, -2.5000, -1.2500
238, 15.6250, -2.5000, 0.0000
239, 15.6250, -2.5000, 1.2500
240, 15.6250, -2.5000, 2.5000
241, 15.6250, -1.2500, -2.5000
242, 15.6250, -1.2500, -1.2500
243, 15.6250, -1.2500, 0.0000
244, 15.6250, -1.2500, 1.2500
245, 15.6250, -1.2500, 2.5000
246, 15.6250, 0.0000, -2.5000
247, 15.6250, 0.0000, -1.2500
248, 15.6250, 0.0000, 0.0000
249, 15.6250, 0.0000, 1.2500
250, 15.6250, 0.0000, 2.5000
251, 15.6250, 1.2500, -2.5000
252, 15.6250, 1.2500, -1.2500
253, 15.6250, 1.2500, 0.0000
254, 15.6250, 1.2500, 1.2500
255, 15.6250, 1.2500, 2.5000
256, 15.6250, 2.5000, -2.5000
257, 15.6250, 2.5000, -1.2500
258, 15.6250, 2.5000, 0.0000
259, 15.6250, 2.5000, 1.2500
260, 15.6250, 2.5000, 2.5000
261, 15.6250, 3.7500, -2.5000
262, 15.6250, 3.7500, -1.2500
263, 15.6250, 3.7500, 0.0000
264, 15.6250, 3.7500, 1.2500
265, 15.6250, 3.7500, 2.5000
266, 15.6250, 5.0000, -2.5000
267, 15.6250, 5.0000, -1.2500
268, 15.6250, 5.0000, 0.0000
269, 15.6250, 5.0000, 1.2500
270, 15.6250, 5.0000, 2.5000
271, 18.7500, -5.0000, -2.5000
272, 18.7500, -5.0000, -1.2500
273, 18.7500, -5.0000, 0.0000
274, 18.7500, -5.0000, 1.2500
275, 18.7500, -5.0000, 2.5000
276, 18.7500, -3.7500, -2.5000
277, 18.7500, -3.7500, -1.2500
278, 18.7500, -3.7500, 0.0000
279, 18.7500, -3.7500, 1.2500
280, 18.7500, -3.7500, 2.5000
281, 18.7500, -2.5000, -2.5000
282, 18.7500, -2.5000, -1.2500
283, 18.7500, -2.5000, 0.0000
284, 18.7500, -2.5000, 1.2500
285, 18.7500, -2.5000, 2.5000
286, 18.7500, -1.2500, -2.5000
287, 18.7500, -1.2500, -1.2500
288, 18.7500, -1.2500, 0.0000
289, 18.7500, -1.2500, 1.2500
290, 18.7500, -1.2500, 2.5000
291, 18.7500, 0.0000, -2.5000
292, 18.7500, 0.0000, -1.2500
293, 18.7500, 0.0000, 0.0000
294, 18.7500, 0.0000, 1.2500
295, 18.7500, 0.0000, 2.5000
296, 18.7500, 1.2500, -2.5000
297, 18.7500, 1.2500, -1.2500
298, 18.7500, 1.2500, 0.0000
299, 18.7500, 1.2500, 1.2500
300, 18.7500, 1.2500, 2.5000
301, 18.7500, 2.5000, -2.5000
302, 18.7500, 2.5000, -1.2500
303, 18.7500, 2.5000, 0.0000
304, 18.7500, 2.5000, 1.2500
305, 18.7500, 2.5000, 2.5000
306, 18.7500, 3.7500, -2.5000
307, 18.7500, 3.7500, -1.2500
308, 18.7500, 3.7500, 0.0000
309, 18.7500, 3.7500, 1.2500
310, 18.7500, 3.7500, 2.5000
311, 18.7500, 5.0000, -2.5000
312, 18.7500, 5.0000, -1.2500
313, 18.7500, 5.0000, 0.0000
314, 18.7500, 5.0000, 1.2500
315, 18.7500, 5.0000, 2.5000
316, 21.8750, -5.0000, -2.5000
317, 21.8750, -5.0000, -1.2500
318, 21.8750, -5.0000, 0.0000
319, 21.8750, -5.0000, 1.2500
320, 21.8750, -5.0000, 2.5000
321, 21.8750, -3.7500, -2.5000
322, 21.8750, -3.7500, -1.2500
323, 21.8750, -3.7500, 0.0000
324, 21.8750, -3.7500, 1.2500
325, 21.8750, -3.7500, 2.5000
326, 21.8750, -2.5000, -2.5000
327, 21.8750, -2.5000, -1.2500
328, 21.8750, -2.5000, 0.0000
329, 21.8750, -2.5000, 1.2500
330, 21.8750, -2.5000, 2.5000
331, 21.8750, -1.2500, -2.5000
332, 21.8750, -1.2500, -1.2500
333, 21.8750, -1.2500, 0.0000
334, 21.8750, -1.2500, 1.2500
335, 21.8750, -1.2500, 2.5000
336, 21.8750, 0.0000, -2.5000
337, 21.8750, 0.0000, -1.2500
338, 21.8750, 0.0000, 0.0000
339, 21.8750, 0.0000, 1.2500
340, 21.8750, 0.0000, 2.5000
341, 21.8750, 1.2500, -2.5000
342, 21.8750, 1.2500, -1.2500
343, 21.8750, 1.2500, 0.0000
344, 21.8750, 1.2500, 1.2500
345, 21.8750, 1.2500, 2.5000
346, 21.8750, 2.5000, -2.5000
347, 21.8750, 2.5000, -1.2500
348, 21.8750, 2.5000, 0.0000
349, 21.8750, 2.5000, 1.2500
350, 21.8750, 2.5000, 2.5000
351, 21.8750, 3.7500, -2.5000
352, 21.8750, 3.7500, -1.2500
353, 21.8750, 3.7500, 0.0000
354, 21.8750, 3.7500, 1.2500
355, 21.8750, 3.7500, 2.5000
356, 21.8750, 5.0000, -2.5000
357, 21.8750, 5.0000, -1.2500
358, 21.8750, 5.0000, 0.0000
359, 21.8750, 5.0000, 1.2500
360, 21.8750, 5.0000, 2.5000
361, 25.0000, -5.0000, -2.5000
362, 25.0000, -5.0000, -1.2500
363, 25.0000, -5.0000, 0.0000
364, 25.0000, -5.0000, 1.2500
365, 25.0000, -5.0000, 2.5000
366, 25.0000, -3.7500, -2.5000
367, 25.0000, -3.7500, -1.2500
368, 25.0000, -3.7500, 0.0000
369, 25.0000, -3.7500, 1.2500
370, 25.0000, -3.7500, 2.5000
371, 25.0000, -2.5000, -2.5000
372, 25.0000, -2.5000, -1.2500
373, 25.0000, -2.5000, 0.0000
374, 25.0000, -2.5000, 1.2500
375, 25.0000, -2.5000, 2.5000
376, 25.0000, -1.2500, -2.5000
377, 25.0000, -1.2500, -1.2500
378, 25.0000, -1.2500, 0.0000
379, 25.0000, -1.2500, 1.2500
380, 25.0000, -1.2500, 2.5000
381, 25.0000, 0.0000, -2.5000
382, 25.0000, 0.0000, -1.2500
383, 25.0000, 0.0000, 0.0000
384, 25.0000, 0.0000, 1.2500
385, 25.0000, 0.0000, 2.5000
386, 25.0000, 1.2500, -2.5000
387, 25.0000, 1.2500, -1.2500
388, 25.0000, 1.2500, 0.0000
389, 25.0000, 1.2500, 1.2500
390, 25.0000, 1.2500, 2.5000
391, 25.0000, 2.5000, -2.5000
392, 25.0000, 2.5000, -1.2500
393, 25.0000, 2.5000, 0.0000
394, 25.0000, 2.5000, 1.2500
395, 25.0000, 2.5000, 2.5000
396, 25.0000, 3.7500, -2.5000
397, 25.0000, 3.7500, -1.2500
398, 25.0000, 3.7500, 0.0000
399, 25.0000, 3.7500, 1.2500
400, 25.0000, 3.7500, 2.5000
401, 25.0000, 5.0000, -2.5000
402, 25.0000, 5.0000, -1.2500
403, 25.0000, 5.0000, 0.0000
404, 25.0000, 5.0000, 1.2500
405, 25.0000, 5.0000, 2.5000
406, 28.1250, -5.0000, -2.5000
407, 28.1250, -5.0000, -1.2500
408, 28.1250, -5.0000, 0.0000
409, 28.1250, -5.0000, 1.2500
410, 28.1250, -5.0000, 2.5000
411, 28.1250, -3.7500, -2.5000
412, 28.1250, -3.7500, -1.2500
413, 28.1250, -3.7500, 0.0000
414, 28.1250, -3.7500, 1.2500
415, 28.1250, -3.7500, 2.5000
416, 28.1250, -2.5000, -2.5000
417, 28.1250, -2.5000, -1.2500
418, 28.1250, -2.5000, 0.0000
419, 28.1250, -2.5000, 1.2500
420, 28.1250, -2.5000, 2.5000
421, 28.1250, -1.2500, -2.5000
422, 28.1250, -1.2500, -1.2500
423, 28.1250, -1.2500, 0.0000
424, 28.1250, -1.2500, 1.2500
425, 28.1250, -1.2500, 2.5000
426, 28.1250, 0.0000, -2.5000
427, 28.1250, 0.0000, -1.2500
428, 28.1250, 0.0000, 0.0000
429, 28.1250, 0.0000, 1.2500
430, 28.1250, 0.0000, 2.5000
431, 28.1250, 1.2500, -2.5000
432, 28.1250, 1.2500, -1.2500
433, 28.1250, 1.2500, 0.0000
434, 28.1250, 1.2500, 1.2500
435, 28.1250, 1.2500, 2.5000
436, 28.1250, 2.5000, -2.5000
437, 28.1250, 2.5000, -1.2500
438, 28.1250, 2.5000, 0.0000
439, 28.1250, 2.5000, 1.2500
440, 28.1250, 2.5000, 2.5000
441, 28.1250, 3.7500, -2.5000
442, 28.1250, 3.7500, -1.2500
443, 28.1250, 3.7500, 0.0000
444, 28.1250, 3.7500, 1.2500
445, 28.1250, 3.7500, 2.5000
446, 28.1250, 5.0000, -2.5000
447, 28.1250, 5.0000, -1.2500
448, 28.1250, 5.0000, 0.0000
449, 28.1250, 5.0000, 1.2500
450, 28.1250, 5.0000, 2.5000
451, 31.2500, -5.0000, -2.5000
452, 31.2500, -5.0000, -1.2500
453, 31.2500, -5.0000, 0.0000
454, 31.2500, -5.0000, 1.2500
455, 31.2500, -5.0000, 2.5000
456, 31.2500, -3.7500, -2.5000
457, 31.2500, -3.7500, -1.2500
458, 31.2500, -3.7500, 0.0000
459, 31.2500, -3.7500, 1.2500
460, 31.2500, -3.7500, 2.5000
461, 31.2500, -2.5000, -2.5000
462, 31.2500, -2.5000, -1.2500
463, 31.2500, -2.5000, 0.0000
464, 31.2500, -2.5000, 1.2500
465, 31.2500, -2.5000, 2.5000
466, 31.2500, -1.2500, -2.5000
467, 31.2500, -1.2500, -1.2500
468, 31.2500, -1.2500, 0.0000
469, 31.2500, -1.2500, 1.2500
470, 31.2500, -1.2500, 2.5000
471, 31.2500, 0.0000, -2.5000
472, 31.2500, 0.0000, -1.2500
473, 31.2500, 0.0000, 0.0000
474, 31.2500, 0.0000, 1.2500
475, 31.2500, 0.0000, 2.5000
476, 31.2500, 1.2500, -2.5000
477, 31.2500, 1.2500, -1.2500
478, 31.2500, 1.2500, 0.0000
479, 31.2500, 1.2500, 1.2500
480, 31.2500, 1.2500, 2.5000
481, 31.2500, 2.5000, -2.5000
482, 31.2500, 2.5000, -1.2500
483, 31.2500, 2.5000, 0.0000
484, 31.2500, 2.5000, 1.2500
485, 31.2500, 2.5000, 2.5000
486, 31.2500, 3.7500, -2.5000
487, 31.2500, 3.7500, -1.2500
488, 31.2500, 3.7500, 0.0000
489, 31.2500, 3.7500, 1.2500
490, 31.2500, 3.7500, 2.5000
491, 31.2500, 5.0000, -2.5000
492, 31.2500, 5.0000, -1.2500
493, 31.2500, 5.0000, 0.0000
494, 31.2500, 5.0000, 1.2500
495, 31.2500, 5.0000, 2.5000
496, 34.3750, -5.0000, -2.5000
497, 34.3750, -5.0000, -1.2500
498, 34.3750, -5.0000, 0.0000
499, 34.3750, -5.0000, 1.2500
500, 34.3750, -5.0000, 2.5000
501, 34.3750, -3.7500, -2.5000
502, 34.3750, -3.7500, -1.2500
503, 34.3750, -3.7500, 0.0000
504, 34.3750, -3.7500, 1.2500
505, 34.3750, -3.7500, 2.5000
506, 34.3750, -2.5000, -2.5000
507, 34.3750, -2.5000, -1.2500
508, 34.3750, -2.5000, 0.0000
509, 34.3750, -2.5000, 1.2500
510, 34.3750, -2.5000, 2.5000
511, 34.3750, -1.2500, -2.5000
512, 34.3750, -1.2500, -1.2500
513, 34.3750, -1.2500, 0.0000
514, 34.3750, -1.2500, 1.2500
515, 34.3750, -1.2500, 2.5000
516, 34.3750, 0.0000, -2.5000
517, 34.3750, 0.0000, -1.2500
518, 34.3750, 0.0000, 0.0000
519, 34.3750, 0.0000, 1.2500
520, 34.3750, 0.0000, 2.5000
521, 34.3750, 1.2500, -2.5000
522, 34.3750, 1.2500, -1.2500
523, 34.3750, 1.2500, 0.0000
524, 34.3750, 1.2500, 1.2500
525, 34.3750, 1.2500, 2.5000
526, 34.3750, 2.5000, -2.5000
527, 34.3750, 2.5000, -1.2500
528, 34.3750, 2.5000, 0.0000
529, 34.3750, 2.5000, 1.2500
530, 34.3750, 2.5000, 2.5000
531, 34.3750, 3.7500, -2.5000
532, 34.3750, 3.7500, -1.2500
533, 34.3750, 3.7500, 0.0000
534, 34.3750, 3.7500, 1.2500
535, 34.3750, 3.7500, 2.5000
536, 34.3750, 5.0000, -2.5000
537, 34.3750, 5.0000, -1.2500
538, 34.3750, 5.0000, 0.0000
539, 34.3750, 5.0000, 1.2500
540, 34.3750, 5.0000, 2.5000
541, 37.5000, -5.0000, -2.5000
542, 37.5000, -5.0000, -1.2500
543, 37.5000, -5.0000, 0.0000
544, 37.5000, -5.0000, 1.2500
545, 37.5000, -5.0000, 2.5000
546, 37.5000, -3.7500, -2.5000
547, 37.5000, -3.7500, -1.2500
548, 37.5000, -3.7500, 0.0000
549, 37.5000, -3.7500, 1.2500
550, 37.5000, -3.7500, 2.5000
551, 37.5000, -2.5000, -2.5000
552, 37.5000, -2.5000, -1.2500
553, 37.5000, -2.5000, 0.0000
554, 37.5000, -2.5000, 1.2500
555, 37.5000, -2.5000, 2.5000
556, 37.5000, -1.2500, -2.5000
557, 37.5000, -1.2500, -1.2500
558, 37.5000, -1.2500, 0.0000
559, 37.5000, -1.2500, 1.2500
560, 37.5000, -1.2500, 2.5000
561, 37.5000, 0.0000, -2.5000
562, 37.5000, 0.0000, -1.2500
563, 37.5000, 0.0000, 0.0000
564, 37.5000, 0.0000, 1.2500
565, 37.5000, 0.0000, 2.5000
566, 37.5000, 1.2500, -2.5000
567, 37.5000, 1.2500, -1.2500
568, 37.5000, 1.2500, 0.0000
569, 37.5000, 1.2500, 1.2500
570, 37.5000, 1.2500, 2.5000
571, 37.5000, 2.5000, -2.5000
572, 37.5000, 2.5000, -1.2500
573, 37.5000, 2.5000, 0.0000
574, 37.5000, 2.5000, 1.2500
575, 37.5000, 2.5000, 2.5000
576, 37.5000, 3.7500, -2.5000
577, 37.5000, 3.7500, -1.2500
578, 37.5000, 3.7500, 0.0000
579, 37.5000, 3.7500, 1.2500
580, 37.5000, 3.7500, 2.5000
581, 37.5000, 5.0000, -2.5000
582, 37.5000, 5.0000, -1.2500
583, 37.5000, 5.0000, 0.0000
584, 37.5000, 5.0000, 1.2500
585, 37.5000, 5.0000, 2.5000
586, 40.6250, -5.0000, -2.5000
587, 40.6250, -5.0000, -1.2500
588, 40.6250, -5.0000, 0.0000
589, 40.6250, -5.0000, 1.2500
590, 40.6250, -5.0000, 2.5000
591, 40.6250, -3.7500, -2.5000
592, 40.6250, -3.7500, -1.2500
593, 40.6250, -3.7500, 0.0000
594, 40.6250, -3.7500, 1.2500
595, 40.6250, -3.7500, 2.5000
596, 40.6250, -2.5000, -2.5000
597, 40.6250, -2.5000, -1.2500
598, 40.6250, -2.5000, 0.0000
599, 40.6250, -2.5000, 1.2500
600, 40.6250, -2.5000, 2.5000
601, 40.6250, -1.2500, -2.5000
602, 40.6250, -1.2500, -1.2500
603, 40.6250, -1.2500, 0.0000
604, 40.6250, -1.2500, 1.2500
605, 40.6250, -1.2500, 2.5000
606, 40.6250, 0.0000, -2.5000
607, 40.6250, 0.0000, -1.2500
608, 40.6250, 0.0000, 0.0000
609, 40.6250, 0.0000, 1.2500
610, 40.6250, 0.0000, 2.5000
611, 40.6250, 1.2500, -2.5000
612, 40.6250, 1.2500, -1.2500
613, 40.6250, 1.2500, 0.0000
614, 40.6250, 1.2500, 1.2500
615, 40.6250, 1.2500, 2.5000
616, 40.6250, 2.5000, -2.5000
617, 40.6250, 2.5000, -1.2500
618, 40.6250, 2.5000, 0.0000
619, 40.6250, 2.5000, 1.2500
620, 40.6250, 2.5000, 2.5000
621, 40.6250, 3.7500, -2.5000
622, 40.6250, 3.7500, -1.2500
623, 40.6250, 3.7500, 0.0000
624, 40.6250, 3.7500, 1.2500
625, 40.6250, 3.7500, 2.5000
626, 40.6250, 5.0000, -2.5000
627, 40.6250, 5.0000, -1.2500
628, 40.6250, 5.0000, 0.0000
629, 40.6250, 5.0000, 1.2500
630, 40.6250, 5.0000, 2.5000
631, 43.7500, -5.0000, -2.5000
632, 43.7500, -5.0000, -1.2500
633, 43.7500, -5.0000, 0.0000
634, 43.7500, -5.0000, 1.2500
635, 43.7500, -5.0000, 2.5000
636, 43.7500, -3.7500, -2.5000
637, 43.7500, -3.7500, -1.2500
638, 43.7500, -3.7500, 0.0000
639, 43.7500, -3.7500, 1.2500
640, 43.7500, -3.7500, 2.5000
641, 43.7500, -2.5000, -2.5000
642, 43.7500, -2.5000, -1.2500
643, 43.7500, -2.5000, 0.0000
644, 43.7500, -2.5000, 1.2500
645, 43.7500, -2.5000, 2.5000
646, 43.7500, -1.2500, -2.5000
647, 43.7500, -1.2500, -1.2500
648, 43.7500, -1.2500, 0.0000
649, 43.7500, -1.2500, 1.2500
650, 43.7500, -1.2500, 2.5000
651, 43.7500, 0.0000, -2.5000
652, 43.7500, 0.0000, -1.2500
653, 43.7500, 0.0000, 0.0000
654, 43.7500, 0.0000, 1.2500
655, 43.7500, 0.0000, 2.5000
656, 43.7500, 1.2500, -2.5000
657, 43.7500, 1.2500, -1.2500
658, 43.7500, 1.2500, 0.0000
659, 43.7500, 1.2500, 1.2500
660, 43.7500, 1.2500, 2.5000
661, 43.7500, 2.5000, -2.5000
662, 43.7500, 2.5000, -1.2500
663, 43.7500, 2.5000, 0.0000
664, 43.7500, 2.5000, 1.2500
665, 43.7500, 2.5000, 2.5000
666, 43.7500, 3.7500, -2.5000
667, 43.7500, 3.7500, -1.2500
668, 43.7500, 3.7500, 0.0000
669, 43.7500, 3.7500, 1.2500
670, 43.7500, 3.7500, 2.5000
671, 43.7500, 5.0000, -2.5000
672, 43.7500, 5.0000, -1.2500
673, 43.7500, 5.0000, 0.0000
674, 43.7500, 5.0000, 1.2500
675, 43.7500, 5.0000, 2.5000
676, 46.8750, -5.0000, -2.5000
677, 46.8750, -5.0000, -1.2500
678, 46.8750, -5.0000, 0.0000
679, 46.8750, -5.0000, 1.2500
680, 46.8750, -5.0000, 2.5000
681, 46.8750, -3.7500, -2.5000
682, 46.8750, -3.7500, -1.2500
683, 46.8750, -3.7500, 0.0000
684, 46.8750, -3.7500, 1.2500
685, 46.8750, -3.7500, 2.5000
686, 46.8750, -2.5000, -2.5000
687, 46.8750, -2.5000, -1.2500
688, 46.8750, -2.5000, 0.0000
689, 46.8750, -2.5000, 1.2500
690, 46.8750, -2.5000, 2.5000
691, 46.8750, -1.2500, -2.5000
692, 46.8750, -1.2500, -1.2500
693, 46.8750, -1.2500, 0.0000
694, 46.8750, -1.2500, 1.2500
695, 46.8750, -1.2500, 2.5000
696, 46.8750, 0.0000, -2.5000
697, 46.8750, 0.0000, -1.2500
698, 46.8750, 0.0000, 0.0000
699, 46.8750, 0.0000, 1.2500
700, 46.8750, 0.0000, 2.5000
701, 46.8750, 1.2500, -2.5000
702, 46.8750, 1.2500, -1.2500
703, 46.8750, 1.2500, 0.0000
704, 46.8750, 1.2500, 1.2500
705, 46.8750, 1.2500, 2.5000
706, 46.8750, 2.5000, -2.5000
707, 46.8750, 2.5000, -1.2500
708, 46.8750, 2.5000, 0.0000
709, 46.8750, 2.5000, 1.2500
710, 46.8750, 2.5000, 2.5000
711, 46.8750, 3.7500, -2.5000
712, 46.8750, 3.7500, -1.2500
713, 46.8750, 3.7500, 0.0000
714, 46.8750, 3.7500, 1.2500
715, 46.8750, 3.7500, 2.5000
716, 46.8750, 5.0000, -2.5000
717, 46.8750, 5.0000, -1.2500
718, 46.8750, 5.0000, 0.0000
719, 46.8750, 5.0000, 1.2500
720, 46.8750, 5.0000, 2.5000
721, 50.0000, -5.0000, -2.5000
722, 50.0000, -5.0000, -1.2500
723, 50.0000, -5.0000, 0.0000
724, 50.0000, -5.0000, 1.2500
725, 50.0000, -5.0000, 2.5000
726, 50.0000, -3.7500, -2.5000
727, 50.0000, -3.7500, -1.2500
728, 50.0000, -3.7500, 0.0000
729, 50.0000, -3.7500, 1.2500
730, 50.0000, -3.7500, 2.5000
731, 50.0000, -2.5000, -2.5000
732, 50.0000, -2.5000, -1.2500
733, 50.0000, -2.5000, 0.0000
734, 50.0000, -2.5000, 1.2500
735, 50.0000, -2.5000, 2.5000
736, 50.0000, -1.2500, -2.5000
737, 50.0000, -1.2500, -1.2500
738, 50.0000, -1.2500, 0.0000
739, 50.0000, -1.2500, 1.2500
740, 50.0000, -1.2500, 2.5000
741, 50.0000, 0.0000, -2.5000
742, 50.0000, 0.0000, -1.2500
743, 50.0000, 0.0000, 0.0000
744, 50.0000, 0.0000, 1.2500
745, 50.0000, 0.0000, 2.5000
746, 50.0000, 1.2500, -2.5000
747, 50.0000, 1.2500, -1.2500
748, 50.0000, 1.2500, 0.0000
749, 50.0000, 1.2500, 1.2500
750, 50.0000, 1.2500, 2.5000
751, 50.0000, 2.5000, -2.5000
752, 50.0000, 2.5000, -1.2500
753, 50.0000, 2.5000, 0.0000
754, 50.0000, 2.5000, 1.2500
755, 50.0000, 2.5000, 2.5000
756, 50.0000, 3.7500, -2.5000
757, 50.0000, 3.7500, -1.2500
758, 50.0000, 3.7500, 0.0000
759, 50.0000, 3.7500, 1.2500
760, 50.0000, 3.7500, 2.5000
761, 50.0000, 5.0000, -2.5000
762, 50.0000, 5.0000, -1.2500
763, 50.0000, 5.0000, 0.0000
764, 50.0000, 5.0000, 1.2500
765, 50.0000, 5.0000, 2.5000
766, 53.1250, -5.0000, -2.5000
767, 53.1250, -5.0000, -1.2500
768, 53.1250, -5.0000, 0.0000
769, 53.1250, -5.0000, 1.2500
770, 53.1250, -5.0000, 2.5000
771, 53.1250, -3.7500, -2.5000
772, 53.1250, -3.7500, -1.2500
773, 53.1250, -3.7500, 0.0000
774, 53.1250, -3.7500, 1.2500
775, 53.1250, -3.7500, 2.5000
776, 53.1250, -2.5000, -2.5000
777, 53.1250, -2.5000, -1.2500
778, 53.1250, -2.5000, 0.0000
779, 53.1250, -2.5000, 1.2500
780, 53.1250, -2.5000, 2.5000
781, 53.1250, -1.2500, -2.5000
782, 53.1250, -1.2500, -1.2500
783, 53.1250, -1.2500, 0.0000
784, 53.1250, -1.2500, 1.2500
785, 53.1250, -1.2500, 2.5000
786, 53.1250, 0.0000, -2.5000
787, 53.1250, 0.0000, -1.2500
788, 53.1250, 0.0000, 0.0000
789, 53.1250, 0.0000, 1.2500
790, 53.1250, 0.0000, 2.5000
791, 53.1250, 1.2500, -2.5000
792, 53.1250, 1.2500, -1.2500
793, 53.1250, 1.2500, 0.0000
794, 53.1250, 1.2500, 1.2500
795, 53.1250, 1.2500, 2.5000
796, 53.1250, 2.5000, -2.5000
797, 53.1250, 2.5000, -1.2500
798, 53.1250, 2.5000, 0.0000
799, 53.1250, 2.5000, 1.2500
800, 53.1250, 2.5000, 2.5000
801, 53.1250, 3.7500, -2.5000
802, 53.1250, 3.7500, -1.2500
803, 53.1250, 3.7500, 0.0000
804, 53.1250, 3.7500, 1.2500
805, 53.1250, 3.7500, 2.5000
806, 53.1250, 5.0000, -2.5000
807, 53.1250, 5.0000, -1.2500
808, 53.1250, 5.0000, 0.0000
809, 53.1250, 5.0000, 1.2500
810, 53.1250, 5.0000, 2.5000
811, 56.2500, -5.0000, -2.5000
812, 56.2500, -5.0000, -1.2500
813, 56.2500, -5.0000, 0.0000
814, 56.2500, -5.0000, 1.2500
815, 56.2500, -5.0000, 2.5000
816, 56.2500, -3.7500, -2.5000
817, 56.2500, -3.7500, -1.2500
818, 56.2500, -3.7500, 0.0000
819, 56.2500, -3.7500, 1.2500
820, 56.2500, -3.7500, 2.5000
821, 56.2500, -2.5000, -2.5000
822, 56.2500, -2.5000, -1.2500
823, 56.2500, -2.5000, 0.0000
824, 56.2500, -2.5000, 1.2500
825, 56.2500, -2.5000, 2.5000
826, 56.2500, -1.2500, -2.5000
827, 56.2500, -1.2500, -1.2500
828, 56.2500, -1.2500, 0.0000
829, 56.2500, -1.2500, 1.2500
830, 56.2500, -1.2500, 2.5000
831, 56.2500, 0.0000, -2.5000
832, 56.2500, 0.0000, -1.2500
833, 56.2500, 0.0000, 0.0000
834, 56.2500, 0.0000, 1.2500
835, 56.2500, 0.0000, 2.5000
836, 56.2500, 1.2500, -2.5000
837, 56.2500, 1.2500, -1.2500
838, 56.2500, 1.2500, 0.0000
839, 56.2500, 1.2500, 1.2500
840, 56.2500, 1.2500, 2.5000
841, 56.2500, 2.5000, -2.5000
842, 56.2500, 2.5000, -1.2500
843, 56.2500, 2.5000, 0.0000
844, 56.2500, 2.5000, 1.2500
845, 56.2500, 2.5000, 2.5000
846, 56.2500, 3.7500, -2.5000
847, 56.2500, 3.7500, -1.2500
848, 56.2500, 3.7500, 0.0000
849, 56.2500, 3.7500, 1.2500
850, 56.2500, 3.7500, 2.5000
851, 56.2500, 5.0000, -2.5000
852, 56.2500, 5.0000, -1.2500
853, 56.2500, 5.0000, 0.0000
854, 56.2500, 5.0000, 1.2500
855, 56.2500, 5.0000, 2.5000
856, 59.3750, -5.0000, -2.5000
857, 59.3750, -5.0000, -1.2500
858, 59.3750, -5.0000, 0.0000
859, 59.3750, -5.0000, 1.2500
860, 59.3750, -5.0000, 2.5000
861, 59.3750, -3.7500, -2.5000
862, 59.3750, -3.7500, -1.2500
863, 59.3750, -3.7500, 0.0000
864, 59.3750, -3.7500, 1.2500
865, 59.3750, -3.7500, 2.5000
866, 59.3750, -2.5000, -2.5000
867, 59.3750, -2.5000, -1.2500
868, 59.3750, -2.5000, 0.0000
869, 59.3750, -2.5000, 1.2500
870, 59.3750, -2.5000, 2.5000
871, 59.3750, -1.2500, -2.5000
872, 59.3750, -1.2500, -1.2500
873, 59.3750, -1.2500, 0.0000
874, 59.3750, -1.2500, 1.2500
875, 59.3750, -1.2500, 2.5000
876, 59.3750, 0.0000, -2.5000
877, 59.3750, 0.0000, -1.2500
878, 59.3750, 0.0000, 0.0000
879, 59.3750, 0.0000, 1.2500
880, 59.3750, 0.0000, 2.5000
881, 59.3750, 1.2500, -2.5000
882, 59.3750, 1.2500, -1.2500
883, 59.3750, 1.2500, 0.0000
884, 59.3750, 1.2500, 1.2500
885, 59.3750, 1.2500, 2.5000
886, 59.3750, 2.5000, -2.5000
887, 59.3750, 2.5000, -1.2500
888, 59.3750, 2.5000, 0.0000
889, 59.3750, 2.5000, 1.2500
890, 59.3750, 2.5000, 2.5000
891, 59.3750, 3.7500, -2.5000
892, 59.3750, 3.7500, -1.2500
893, 59.3750, 3.7500, 0.0000
894, 59.3750, 3.7500, 1.2500
895, 59.3750, 3.7500, 2.5000
896, 59.3750, 5.0000, -2.5000
897, 59.3750, 5.0000, -1.2500
898, 59.3750, 5.0000, 0.0000
899, 59.3750, 5.0000, 1.2500
900, 59.3750, 5.0000, 2.5000
901, 62.5000, -5.0000, -2.5000
902, 62.5000, -5.0000, -1.2500
903, 62.5000, -5.0000, 0.0000
904, 62.5000, -5.0000, 1.2500
905, 62.5000, -5.0000, 2.5000
906, 62.5000, -3.7500, -2.5000
907, 62.5000, -3.7500, -1.2500
908, 62.5000, -3.7500, 0.0000
909, 62.5000, -3.7500, 1.2500
910, 62.5000, -3.7500, 2.5000
911, 62.5000, -2.5000, -2.5000
912, 62.5000, -2.5000, -1.2500
913, 62.5000, -2.5000, 0.0000
914, 62.5000, -2.5000, 1.2500
915, 62.5000, -2.5000, 2.5000
916, 62.5000, -1.2500, -2.5000
917, 62.5000, -1.2500, -1.2500
918, 62.5000, -1.2500, 0.0000
919, 62.5000, -1.2500, 1.2500
920, 62.5000, -1.2500, 2.5000
921, 62.5000, 0.0000, -2.5000
922, 62.5000, 0.0000, -1.2500
923, 62.5000, 0.0000, 0.0000
924, 62.5000, 0.0000, 1.2500
925, 62.5000, 0.0000, 2.5000
926, 62.5000, 1.2500, -2.5000
927, 62.5000, 1.2500, -1.2500
928, 62.5000, 1.2500, 0.0000
929, 62.5000, 1.2500, 1.2500
930, 62.5000, 1.2500, 2.5000
931, 62.5000, 2.5000, -2.5000
932, 62.5000, 2.5000, -1.2500
933, 62.5000, 2.5000, 0.0000
934, 62.5000, 2.5000, 1.2500
935, 62.5000, 2.5000, 2.5000
936, 62.5000, 3.7500, -2.5000
937, 62.5000, 3.7500, -1.2500
938, 62.5000, 3.7500, 0.0000
939, 62.5000, 3.7500, 1.2500
940, 62.5000, 3.7500, 2.5000
941, 62.5000, 5.0000, -2.5000
942, 62.5000, 5.0000, -1.2500
943, 62.5000, 5.0000, 0.0000
944, 62.5000, 5.0000, 1.2500
945, 62.5000, 5.0000, 2.5000
946, 65.6250, -5.0000, -2.5000
947, 65.6250, -5.0000, -1.2500
948, 65.6250, -5.0000, 0.0000
949, 65.6250, -5.0000, 1.2500
950, 65.6250, -5.0000, 2.5000
951, 65.6250, -3.7500, -2.5000
952, 65.6250, -3.7500, -1.2500
953, 65.6250, -3.7500, 0.0000
954, 65.6250, -3.7500, 1.2500
955, 65.6250, -3.7500, 2.5000
956, 65.6250, -2.5000, -2.5000
957, 65.6250, -2.5000, -1.2500
958, 65.6250, -2.5000, 0.0000
959, 65.6250, -2.5000, 1.2500
960, 65.6250, -2.5000, 2.5000
961, 65.6250, -1.2500, -2.5000
962, 65.6250, -1.2500, -1.2500
963, 65.6250, -1.2500, 0.0000
964, 65.6250, -1.2500, 1.2500
965, 65.6250, -1.2500, 2.5000
966, 65.6250, 0.0000, -2.5000
967, 65.6250, 0.0000, -1.2500
968, 65.6250, 0.0000, 0.0000
969, 65.6250, 0.0000, 1.2500
970, 65.6250, 0.0000, 2.5000
971, 65.6250, 1.2500, -2.5000
972, 65.6250, 1.2500, -1.2500
973, 65.6250, 1.2500, 0.0000
974, 65.6250, 1.2500, 1.2500
975, 65.6250, 1.2500, 2.5000
976, 65.6250, 2.5000, -2.5000
977, 65.6250, 2.5000, -1.2500
978, 65.6250, 2.5000, 0.0000
979, 65.6250, 2.5000, 1.2500
980, 65.6250, 2.5000, 2.5000
981, 65.6250, 3.7500, -2.5000
982, 65.6250, 3.7500, -1.2500
983, 65.6250, 3.7500, 0.0000
984, 65.6250, 3.7500, 1.2500
985, 65.6250, 3.7500, 2.5000
986, 65.6250, 5.0000, -2.5000
987, 65.6250, 5.0000, -1.2500
988, 65.6250, 5.0000, 0.0000
989, 65.6250, 5.0000, 1.2500
990, 65.6250, 5.0000, 2.5000
991, 68.7500, -5.0000, -2.5000
992, 68.7500, -5.0000, -1.2500
993, 68.7500, -5.0000, 0.0000
994, 68.7500, -5.0000, 1.2500
995, 68.7500, -5.0000, 2.5000
996, 68.7500, -3.7500, -2.5000
997, 68.7500, -3.7500, -1.2500
998, 68.7500, -3.7500, 0.0000
999, 68.7500, -3.7500, 1.2500
1000, 68.7500, -3.7500, 2.5000
1001, 68.7500, -2.5000, -2.5000
1002, 68.7500, -2.5000, -1.2500
1003, 68.7500, -2.5000, 0.0000
1004, 68.7500, -2.5000, 1.2500
1005, 68.7500, -2.5000, 2.5000
1006, 68.7500, -1.2500, -2.5000
1007, 68.7500, -1.2500, -1.2500
1008, 68.7500, -1.2500, 0.0000
1009, 68.7500, -1.2500, 1.2500
1010, 68.7500, -1.2500, 2.5000
1011, 68.7500, 0.0000, -2.5000
1012, 68.7500, 0.0000, -1.2500
1013, 68.7500, 0.0000, 0.0000
1014, 68.7500, 0.0000, 1.2500
1015, 68.7500, 0.0000, 2.5000
1016, 68.7500, 1.2500, -2.5000
1017, 68.7500, 1.2500, -1.2500
1018, 68.7500, 1.2500, 0.0000
1019, 68.7500, 1.2500, 1.2500
1020, 68.7500, 1.2500, 2.5000
1021, 68.7500, 2.5000, -2.5000
1022, 68.7500, 2.5000, -1.2500
1023, 68.7500, 2.5000, 0.0000
1024, 68.7500, 2.5000, 1.2500
1025, 68.7500, 2.5000, 2.5000
1026, 68.7500, 3.7500, -2.5000
1027, 68.7500, 3.7500, -1.2500
1028, 68.7500, 3.7500, 0.0000
1029, 68.7500, 3.7500, 1.2500
1030, 68.7500, 3.7500, 2.5000
1031, 68.7500, 5.0000, -2.5000
1032, 68.7500, 5.0000, -1.2500
1033, 68.7500, 5.0000, 0.0000
1034, 68.7500, 5.0000, 1.2500
1035, 68.7500, 5.0000, 2.5000
1036, 71.8750, -5.0000, -2.5000
1037, 71.8750, -5.0000, -1.2500
1038, 71.8750, -5.0000, 0.0000
1039, 71.8750, -5.0000, 1.2500
1040, 71.8750, -5.0000, 2.5000
1041, 71.8750, -3.7500, -2.5000
1042, 71.8750, -3.7500, -1.2500
1043, 71.8750, -3.7500, 0.0000
1044, 71.8750, -3.7500, 1.2500
1045, 71.8750, -3.7500, 2.5000
1046, 71.8750, -2.5000, -2.5000
1047, 71.8750, -2.5000, -1.2500
1048, 71.8750, -2.5000, 0.0000
1049, 71.8750, -2.5000, 1.2500
1050, 71.8750, -2.5000, 2.5000
1051, 71.8750, -1.2500, -2.5000
1052, 71.8750, -1.2500, -1.2500
1053, 71.8750, -1.2500, 0.0000
1054, 71.8750, -1.2500, 1.2500
1055, 71.8750, -1.2500, 2.5000
1056, 71.8750, 0.0000, -2.5000
1057, 71.8750, 0.0000, -1.2500
1058, 71.8750, 0.0000, 0.0000
1059, 71.8750, 0.0000, 1.2500
1060, 71.8750, 0.0000, 2.5000
1061, 71.8750, 1.2500, -2.5000
1062, 71.8750, 1.2500, -1.2500
1063, 71.8750, 1.2500, 0.0000
1064, 71.8750, 1.2500, 1.2500
1065, 71.8750, 1.2500, 2.5000
1066, 71.8750, 2.5000, -2.5000
1067, 71.8750, 2.5000, -1.2500
1068, 71.8750, 2.5000, 0.0000
1069, 71.8750, 2.5000, 1.2500
1070, 71.8750, 2.5000, 2.5000
1071, 71.8750, 3.7500, -2.5000
1072, 71.8750, 3.7500, -1.2500
1073, 71.8750, 3.7500, 0.0000
1074, 71.8750, 3.7500, 1.2500
1075, 71.8750, 3.7500, 2.5000
1076, 71.8750, 5.0000, -2.5000
1077, 71.8750, 5.0000, -1.2500
1078, 71.8750, 5.0000, 0.0000
1079, 71.8750, 5.0000, 1.2500
1080, 71.8750, 5.0000, 2.5000
1081, 75.0000, -5.0000, -2.5000
1082, 75.0000, -5.0000, -1.2500
1083, 75.0000, -5.0000, 0.0000
1084, 75.0000, -5.0000, 1.2500
1085, 75.0000, -5.0000, 2.5000
1086, 75.0000, -3.7500, -2.5000
1087, 75.0000, -3.7500, -1.2500
1088, 75.0000, -3.7500, 0.0000
1089, 75.0000, -3.7500, 1.2500
1090, 75.0000, -3.7500, 2.5000
1091, 75.0000, -2.5000, -2.5000
1092, 75.0000, -2.5000, -1.2500
1093, 75.0000, -2.5000, 0.0000
1094, 75.0000, -2.5000, 1.2500
1095, 75.0000, -2.5000, 2.5000
1096, 75.0000, -1.2500, -2.5000
1097, 75.0000, -1.2500, -1.2500
1098, 75.0000, -1.2500, 0.0000
1099, 75.0000, -1.2500, 1.2500
1100, 75.0000, -1.2500, 2.5000
1101, 75.0000, 0.0000, -2.5000
1102, 75.0000, 0.0000, -1.2500
1103, 75.0000, 0.0000, 0.0000
1104, 75.0000, 0.0000, 1.2500
1105, 75.0000, 0.0000, 2.5000
1106, 75.0000, 1.2500, -2.5000
1107, 75.0000, 1.2500, -1.2500
1108, 75.0000, 1.2500, 0.0000
1109, 75.0000, 1.2500, 1.2500
1110, 75.0000, 1.2500, 2.5000
1111, 75.0000, 2.5000, -2.5000
1112, 75.0000, 2.5000, -1.2500
1113, 75.0000, 2.5000, 0.0000
1114, 75.0000, 2.5000, 1.2500
1115, 75.0000, 2.5000, 2.5000
1116, 75.0000, 3.7500, -2.5000
1117, 75.0000, 3.7500, -1.2500
1118, 75.0000, 3.7500, 0.0000
1119, 75.0000, 3.7500, 1.2500
1120, 75.0000, 3.7500, 2.5000
1121, 75.0000, 5.0000, -2.5000
1122, 75.0000, 5.0000, -1.2500
1123, 75.0000, 5.0000, 0.0000
1124, 75.0000, 5.0000, 1.2500
1125, 75.0000, 5.0000, 2.5000
1126, 78.1250, -5.0000, -2.5000
1127, 78.1250, -5.0000, -1.2500
1128, 78.1250, -5.0000, 0.0000
1129, 78.1250, -5.0000, 1.2500
1130, 78.1250, -5.0000, 2.5000
1131, 78.1250, -3.7500, -2.5000
1132, 78.1250, -3.7500, -1.2500
1133, 78.1250, -3.7500, 0.0000
1134, 78.1250, -3.7500, 1.2500
1135, 78.1250, -3.7500, 2.5000
1136, 78.1250, -2.5000, -2.5000
1137, 78.1250, -2.5000, -1.2500
1138, 78.1250, -2.5000, 0.0000
1139, 78.1250, -2.5000, 1.2500
1140, 78.1250, -2.5000, 2.5000
1141, 78.1250, -1.2500, -2.5000
1142, 78.1250, -1.2500, -1.2500
1143, 78.1250, -1.2500, 0.0000
1144, 78.1250, -1.2500, 1.2500
1145, 78.1250, -1.2500, 2.5000
1146, 78.1250, 0.0000, -2.5000
1147, 78.1250, 0.0000, -1.2500
1148, 78.1250, 0.0000, 0.0000
1149, 78.1250, 0.0000, 1.2500
1150, 78.1250, 0.0000, 2.5000
1151, 78.1250, 1.2500, -2.5000
1152, 78.1250, 1.2500, -1.2500
1153, 78.1250, 1.2500, 0.0000
1154, 78.1250, 1.2500, 1.2500
1155, 78.1250, 1.2500, 2.5000
1156, 78.1250, 2.5000, -2.5000
1157, 78.1250, 2.5000, -1.2500
1158, 78.1250, 2.5000, 0.0000
1159, 78.1250, 2.5000, 1.2500
1160, 78.1250, 2.5000, 2.5000
1161, 78.1250, 3.7500, -2.5000
1162, 78.1250, 3.7500, -1.2500
1163, 78.1250, 3.7500, 0.0000
1164, 78.1250, 3.7500, 1.2500
1165, 78.1250, 3.7500, 2.5000
1166, 78.1250, 5.0000, -2.5000
1167, 78.1250, 5.0000, -1.2500
1168, 78.1250, 5.0000, 0.0000
1169, 78.1250, 5.0000, 1.2500
1170, 78.1250, 5.0000, 2.5000
1171, 81.2500, -5.0000, -2.5000
1172, 81.2500, -5.0000, -1.2500
1173, 81.2500, -5.0000, 0.0000
1174, 81.2500, -5.0000, 1.2500
1175, 81.2500, -5.0000, 2.5000
1176, 81.2500, -3.7500, -2.5000
1177, 81.2500, -3.7500, -1.2500
1178, 81.2500, -3.7500, 0.0000
1179, 81.2500, -3.7500, 1.2500
1180, 81.2500, -3.7500, 2.5000
1181, 81.2500, -2.5000, -2.5000
1182, 81.2500, -2.5000, -1.2500
1183, 81.2500, -2.5000, 0.0000
1184, 81.2500, -2.5000, 1.2500
1185, 81.2500, -2.5000, 2.5000
1186, 81.2500, -1.2500, -2.5000
1187, 81.2500, -1.2500, -1.2500
1188, 81.2500, -1.2500, 0.0000
1189, 81.2500, -1.2500, 1.2500
1190, 81.2500, -1.2500, 2.5000
1191, 81.2500, 0.0000, -2.5000
1192, 81.2500, 0.0000, -1.2500
1193, 81.2500, 0.0000, 0.0000
1194, 81.2500, 0.0000, 1.2500
1195, 81.2500, 0.0000, 2.5000
1196, 81.2500, 1.2500, -2.5000
1197, 81.2500, 1.2500, -1.2500
1198, 81.2500, 1.2500, 0.0000
1199, 81.2500, 1.2500, 1.2500
1200, 81.2500, 1.2500, 2.5000
1201, 81.2500, 2.5000, -2.5000
1202, 81.2500, 2.5000, -1.2500
1203, 81.2500, 2.5000, 0.0000
1204, 81.2500, 2.5000, 1.2500
1205, 81.2500, 2.5000, 2.5000
1206, 81.2500, 3.7500, -2.5000
1207, 81.2500, 3.7500, -1.2500
1208, 81.2500, 3.7500, 0.0000
1209, 81.2500, 3.7500, 1.2500
1210, 81.2500, 3.7500, 2.5000
1211, 81.2500, 5.0000, -2.5000
1212, 81.2500, 5.0000, -1.2500
1213, 81.2500, 5.0000, 0.0000
1214, 81.2500, 5.0000, 1.2500
1215, 81.2500, 5.0000, 2.5000
1216, 84.3750, -5.0000, -2.5000
1217, 84.3750, -5.0000, -1.2500
1218, 84.3750, -5.0000, 0.0000
1219, 84.3750, -5.0000, 1.2500
1220, 84.3750, -5.0000, 2.5000
1221, 84.3750, -3.7500, -2.5000
1222, 84.3750, -3.7500, -1.2500
1223, 84.3750, -3.7500, 0.0000
1224, 84.3750, -3.7500, 1.2500
1225, 84.3750, -3.7500, 2.5000
1226, 84.3750, -2.5000, -2.5000
1227, 84.3750, -2.5000, -1.2500
1228, 84.3750, -2.5000, 0.0000
1229, 84.3750, -2.5000, 1.2500
1230, 84.3750, -2.5000, 2.5000
1231, 84.3750, -1.2500, -2.5000
1232, 84.3750, -1.2500, -1.2500
1233, 84.3750, -1.2500, 0.0000
1234, 84.3750, -1.2500, 1.2500
1235, 84.3750, -1.2500, 2.5000
1236, 84.3750, 0.0000, -2.5000
1237, 84.3750, 0.0000, -1.2500
1238, 84.3750, 0.0000, 0.0000
1239, 84.3750, 0.0000, 1.2500
1240, 84.3750, 0.0000, 2.5000
1241, 84.3750, 1.2500, -2.5000
1242, 84.3750, 1.2500, -1.2500
1243, 84.3750, 1.2500, 0.0000
1244, 84.3750, 1.2500, 1.2500
1245, 84.3750, 1.2500, 2.5000
1246, 84.3750, 2.5000, -2.5000
1247, 84.3750, 2.5000, -1.2500
1248, 84.3750, 2.5000, 0.0000
1249, 84.3750, 2.5000, 1.2500
1250, 84.3750, 2.5000, 2.5000
1251, 84.3750, 3.7500, -2.5000
1252, 84.3750, 3.7500, -1.2500
1253, 84.3750, 3.7500, 0.0000
1254, 84.3750, 3.7500, 1.2500
1255, 84.3750, 3.7500, 2.5000
1256, 84.3750, 5.0000, -2.5000
1257, 84.3750, 5.0000, -1.2500
1258, 84.3750, 5.0000, 0.0000
1259, 84.3750, 5.0000, 1.2500
1260, 84.3750, 5.0000, 2.5000
1261, 87.5000, -5.0000, -2.5000
1262, 87.5000, -5.0000, -1.2500
1263, 87.5000, -5.0000, 0.0000
1264, 87.5000, -5.0000, 1.2500
1265, 87.5000, -5.0000, 2.5000
1266, 87.5000, -3.7500, -2.5000
1267, 87.5000, -3.7500, -1.2500
1268, 87.5000, -3.7500, 0.0000
1269, 87.5000, -3.7500, 1.2500
1270, 87.5000, -3.7500, 2.5000
1271, 87.5000, -2.5000, -2.5000
1272, 87.5000, -2.5000, -1.2500
1273, 87.5000, -2.5000, 0.0000
1274, 87.5000, -2.5000, 1.2500
1275, 87.5000, -2.5000, 2.5000
1276, 87.5000, -1.2500, -2.5000
1277, 87.5000, -1.2500, -1.2500
1278, 87.5000, -1.2500, 0.0000
1279, 87.5000, -1.2500, 1.2500
1280, 87.5000, -1.2500, 2.5000
1281, 87.5000, 0.0000, -2.5000
1282, 87.5000, 0.0000, -1.2500
1283, 87.5000, 0.0000, 0.0000
1284, 87.5000, 0.0000, 1.2500
1285, 87.5000, 0.0000, 2.5000
1286, 87.5000, 1.2500, -2.5000
1287, 87.5000, 1.2500, -1.2500
1288, 87.5000, 1.2500, 0.0000
1289, 87.5000, 1.2500, 1.2500
1290, 87.5000, 1.2500, 2.5000
1291, 87.5000, 2.5000, -2.5000
1292, 87.5000, 2.5000, -1.2500
1293, 87.5000, 2.5000, 0.0000
1294, 87.5000, 2.5000, 1.2500
1295, 87.5000, 2.5000, 2.5000
1296, 87.5000, 3.7500, -2.5000
1297, 87.5000, 3.7500, -1.2500
1298, 87.5000, 3.7500, 0.0000
1299, 87.5000, 3.7500, 1.2500
1300, 87.5000, 3.7500, 2.5000
1301, 87.5000, 5.0000, -2.5000
1302, 87.5000, 5.0000, -1.2500
1303, 87.5000, 5.0000, 0.0000
1304, 87.5000, 5.0000, 1.2500
1305, 87.5000, 5.0000, 2.5000
1306, 90.6250, -5.0000, -2.5000
1307, 90.6250, -5.0000, -1.2500
1308, 90.6250, -5.0000, 0.0000
1309, 90.6250, -5.0000, 1.2500
1310, 90.6250, -5.0000, 2.5000
1311, 90.6250, -3.7500, -2.5000
1312, 90.6250, -3.7500, -1.2500
1313, 90.6250, -3.7500, 0.0000
1314, 90.6250, -3.7500, 1.2500
1315, 90.6250, -3.7500, 2.5000
1316, 90.6250, -2.5000, -2.5000
1317, 90.6250, -2.5000, -1.2500
1318, 90.6250, -2.5000, 0.0000
1319, 90.6250, -2.5000, 1.2500
1320, 90.6250, -2.5000, 2.5000
1321, 90.6250, -1.2500, -2.5000
1322, 90.6250, -1.2500, -1.2500
1323, 90.6250, -1.2500, 0.0000
1324, 90.6250, -1.2500, 1.2500
1325, 90.6250, -1.2500, 2.5000
1326, 90.6250, 0.0000, -2.5000
1327, 90.6250, 0.0000, -1.2500
1328, 90.6250, 0.0000, 0.0000
1329, 90.6250, 0.0000, 1.2500
1330, 90.6250, 0.0000, 2.5000
1331, 90.6250, 1.2500, -2.5000
1332, 90.6250, 1.2500, -1.2500
1333, 90.6250, 1.2500, 0.0000
1334, 90.6250, 1.2500, 1.2500
1335, 90.6250, 1.2500, 2.5000
1336, 90.6250, 2.5000, -2.5000
1337, 90.6250, 2.5000, -1.2500
1338, 90.6250, 2.5000, 0.0000
1339, 90.6250, 2.5000, 1.2500
1340, 90.6250, 2.5000, 2.5000
1341, 90.6250, 3.7500, -2.5000
1342, 90.6250, 3.7500, -1.2500
1343, 90.6250, 3.7500, 0.0000
1344, 90.6250, 3.7500, 1.2500
1345, 90.6250, 3.7500, 2.5000
1346, 90.6250, 5.0000, -2.5000
1347, 90.6250, 5.0000, -1.2500
1348, 90.6250, 5.0000, 0.0000
1349, 90.6250, 5.0000, 1.2500
1350, 90.6250, 5.0000, 2.5000
1351, 93.7500, -5.0000, -2.5000
1352, 93.7500, -5.0000, -1.2500
1353, 93.7500, -5.0000, 0.0000
1354, 93.7500, -5.0000, 1.2500
1355, 93.7500, -5.0000, 2.5000
1356, 93.7500, -3.7500, -2.5000
1357, 93.7500, -3.7500, -1.2500
1358, 93.7500, -3.7500, 0.0000
1359, 93.7500, -3.7500, 1.2500
1360, 93.7500, -3.7500, 2.5000
1361, 93.7500, -2.5000, -2.5000
1362, 93.7500, -2.5000, -1.2500
1363, 93.7500, -2.5000, 0.0000
1364, 93.7500, -2.5000, 1.2500
1365, 93.7500, -2.5000, 2.5000
1366, 93.7500, -1.2500, -2.5000
1367, 93.7500, -1.2500, -1.2500
1368, 93.7500, -1.2500, 0.0000
1369, 93.7500, -1.2500, 1.2500
1370, 93.7500, -1.2500, 2.5000
1371, 93.7500, 0.0000, -2.5000
1372, 93.7500, 0.0000, -1.2500
1373, 93.7500, 0.0000, 0.0000
1374, 93.7500, 0.0000, 1.2500
1375, 93.7500, 0.0000, 2.5000
1376, 93.7500, 1.2500, -2.5000
1377, 93.7500, 1.2500, -1.2500
1378, 93.7500, 1.2500, 0.0000
1379, 93.7500, 1.2500, 1.2500
1380, 93.7500, 1.2500, 2.5000
1381, 93.7500, 2.5000, -2.5000
1382, 93.7500, 2.5000, -1.2500
1383, 93.7500, 2.5000, 0.0000
1384, 93.7500, 2.5000, 1.2500
1385, 93.7500, 2.5000, 2.5000
1386, 93.7500, 3.7500, -2.5000
1387, 93.7500, 3.7500, -1.2500
1388, 93.7500, 3.7500, 0.0000
1389, 93.7500, 3.7500, 1.2500
1390, 93.7500, 3.7500, 2.5000
1391, 93.7500, 5.0000, -2.5000
1392, 93.7500, 5.0000, -1.2500
1393, 93.7500, 5.0000, 0.0000
1394, 93.7500, 5.0000, 1.2500
1395, 93.7500, 5.0000, 2.5000
1396, 96.8750, -5.0000, -2.5000
1397, 96.8750, -5.0000, -1.2500
1398, 96.8750, -5.0000, 0.0000
1399, 96.8750, -5.0000, 1.2500
1400, 96.8750, -5.0000, 2.5000
1401, 96.8750, -3.7500, -2.5000
1402, 96.8750, -3.7500, -1.2500
1403, 96.8750, -3.7500, 0.0000
1404, 96.8750, -3.7500, 1.2500
1405, 96.8750, -3.7500, 2.5000
1406, 96.8750, -2.5000, -2.5000
1407, 96.8750, -2.5000, -1.2500
1408, 96.8750, -2.5000, 0.0000
1409, 96.8750, -2.5000, 1.2500
1410, 96.8750, -2.5000, 2.5000
1411, 96.8750, -1.2500, -2.5000
1412, 96.8750, -1.2500, -1.2500
1413, 96.8750, -1.2500, 0.0000
1414, 96.8750, -1.2500, 1.2500
1415, 96.8750, -1.2500, 2.5000
1416, 96.8750, 0.0000, -2.5000
1417, 96.8750, 0.0000, -1.2500
1418, 96.8750, 0.0000, 0.0000
1419, 96.8750, 0.0000, 1.2500
1420, 96.8750, 0.0000, 2.5000
1421, 96.8750, 1.2500, -2.5000
1422, 96.8750, 1.2500, -1.2500
1423, 96.8750, 1.2500, 0.0000
1424, 96.8750, 1.2500, 1.2500
1425, 96.8750, 1.2500, 2.5000
1426, 96.8750, 2.5000, -2.5000
1427, 96.8750, 2.5000, -1.2500
1428, 96.8750, 2.5000, 0.0000
1429, 96.8750, 2.5000, 1.2500
1430, 96.8750, 2.5000, 2.5000
1431, 96.8750, 3.7500, -2.5000
1432, 96.8750, 3.7500, -1.2500
1433, 96.8750, 3.7500, 0.0000
1434, 96.8750, 3.7500, 1.2500
1435, 96.8750, 3.7500, 2.5000
1436, 96.8750, 5.0000, -2.5000
1437, 96.8750, 5.0000, -1.2500
1438, 96.8750, 5.0000, 0.0000
1439, 96.8750, 5.0000, 1.2500
1440, 96.8750, 5.0000, 2.5000
1441, 100.0000, -5.0000, -2.5000
1442, 100.0000, -5.0000, -1.2500
1443, 100.0000, -5.0000, 0.0000
1444, 100.0000, -5.0000, 1.2500
1445, 100.0000, -5.0000, 2.5000
1446, 100.0000, -3.7500, -2.5000
1447, 100.0000, -3.7500, -1.2500
1448, 100.0000, -3.7500, 0.0000
1449, 100.0000, -3.7500, 1.2500
1450, 100.0000, -3.7500, 2.5000
1451, 100.0000, -2.5000, -2.5000
1452, 100.0000, -2.5000, -1.2500
1453, 100.0000, -2.5000, 0.0000
1454, 100.0000, -2.5000, 1.2500
1455, 100.0000, -2.5000, 2.5000
1456, 100.0000, -1.2500, -2.5000
1457, 100.0000, -1.2500, -1.2500
1458, 100.0000, -1.2500, 0.0000
1459, 100.0000, -1.2500, 1.2500
1460, 100.0000, -1.2500, 2.5000
1461, 100.0000, 0.0000, -2.5000
1462, 100.0000, 0.0000, -1.2500
1463, 100.0000, 0.0000, 0.0000
1464, 100.0000, 0.0000, 1.2500
1465, 100.0000, 0.0000, 2.5000
1466, 100.0000, 1.2500, -2.5000
1467, 100.0000, 1.2500, -1.2500
1468, 100.0000, 1.2500, 0.0000
1469, 100.0000, 1.2500, 1.2500
1470, 100.0000, 1.2500, 2.5000
1471, 100.0000, 2.5000, -2.5000
1472, 100.0000, 2.5000, -1.2500
1473, 100.0000, 2.5000, 0.0000
1474, 100.0000, 2.5000, 1.2500
1475, 100.0000, 2.5000, 2.5000
1476, 100.0000, 3.7500, -2.5000
1477, 100.0000, 3.7500, -1.2500
1478, 100.0000, 3.7500, 0.0000
1479, 100.0000, 3.7500, 1.2500
1480, 100.0000, 3.7500, 2.5000
1481, 100.0000, 5.0000, -2.5000
1482, 100.0000, 5.0000, -1.2500
1483, 100.0000, 5.0000, 0.0000
1484, 100.0000, 5.0000, 1.2500
1485, 100.0000, 5.0000, 2.5000
*ELEMENT, TYPE=C3D20, ELSET=EALL
1, 1, 91, 101, 11, 3, 93, 103, 13, 46, 96, 56, 6, 48, 98, 58
8, 2, 92, 102, 12
2, 3, 93, 103, 13, 5, 95, 105, 15, 48, 98, 58, 8, 50, 100, 60
10, 4, 94, 104, 14
3, 11, 101, 111, 21, 13, 103, 113, 23, 56, 106, 66, 16, 58, 108, 68
18, 12, 102, 112, 22
4, 13, 103, 113, 23, 15, 105, 115, 25, 58, 108, 68, 18, 60, 110, 70
20, 14, 104, 114, 24
5, 21, 111, 121, 31, 23, 113, 123, 33, 66, 116, 76, 26, 68, 118, 78
28, 22, 112, 122, 32
6, 23, 113, 123, 33, 25, 115, 125, 35, 68, 118, 78, 28, 70, 120, 80
30, 24, 114, 124, 34
7, 31, 121, 131, 41, 33, 123, 133, 43, 76, 126, 86, 36, 78, 128, 88
38, 32, 122, 132, 42
8, 33, 123, 133, 43, 35, 125, 135, 45, 78, 128, 88, 38, 80, 130, 90
40, 34, 124, 134, 44
9, 91, 181, 191, 101, 93, 183, 193, 103, 136, 186, 146, 96, 138, 188, 148
98, 92, 182, 192, 102
10, 93, 183, 193, 103, 95, 185, 195, 105, 138, 188, 148, 98, 140, 190, 150
100, 94, 184, 194, 104
11, 101, 191, 201, 111, 103, 193, 203, 113, 146, 196, 156, 106, 148, 198, 158
108, 102, 192, 202, 112
12, 103, 193, 203, 113, 105, 195, 205, 115, 148, 198, 158, 108, 150, 200, 160
110, 104, 194, 204, 114
13, 111, 201, 211, 121, 113, 203, 213, 123, 156, 206, 166, 116, 158, 208, 168
118, 112, 202, 212, 122
14, 113, 203, 213, 123, 115, 205, 215, 125, 158, 208, 168, 118, 160, 210, 170
120, 114, 204, 214, 124
15, 121, 211, 221, 131, 123, 213, 223, 133, 166, 216, 176, 126, 168, 218, 178
128, 122, 212, 222, 132
16, 123, 213, 223, 133, 125, 215, 225, 135, 168, 218, 178, 128, 170, 220, 180
130, 124, 214, 224, 134
17, 181, 271, 281, 191, 183, 273, 283, 193, 226, 276, 236, 186, 228, 278, 238
188, 182, 272, 282, 192
18, 183, 273, 283, 193, 185, 275, 285, 195, 228, 278, 238, 188, 230, 280, 240
190, 184, 274, 284, 194
19, 191, 281, 291, 201, 193, 283, 293, 203, 236, 286, 246, 196, 238, 288, 248
198, 192, 282, 292, 202
20, 193, 283, 293, 203, 195, 285, 295, 205, 238, 288, 248, 198, 240, 290, 250
200, 194, 284, 294, 204
21, 201, 291, 301, 211, 203, 293, 303, 213, 246, 296, 256, 206, 248, 298, 258
208, 202, 292, 302, 212
22, 203, 293, 303, 213, 205, 295, 305, 215, 248, 298, 258, 208, 250, 300, 260
210, 204, 294, 304, 214
23, 211, 301, 311, 221, 213, 303, 313, 223, 256, 306, 266, 216, 258, 308, 268
218, 212, 302, 312, 222
24, 213, 303, 313, 223, 215, 305, 315, 225, 258, 308, 268, 218, 260, 310, 270
220, 214, 304, 314, 224
25, 271, 361, 371, 281, 273, 363, 373, 283, 316, 366, 326, 276, 318, 368, 328
278, 272, 362, 372, 282
26, 273, 363, 373, 283, 275, 365, 375, 285, 318, 368, 328, 278, 320, 370, 330
280, 274, 364, 374, 284
27, 281, 371, 381, 291, 283, 373, 383, 293, 326, 376, 336, 286, 328, 378, 338
288, 282, 372, 382, 292
28, 283, 373, 383, 293, 285, 375, 385, 295, 328, 378, 338, 288, 330, 380, 340
290, 284, 374, 384, 294
29, 291, 381, 391, 301, 293, 383, 393, 303, 336, 386, 346, 296, 338, 388, 348
298, 292, 382, 392, 302
30, 293, 383, 393, 303, 295, 385, 395, 305, 338, 388, 348, 298, 340, 390, 350
300, 294, 384, 394, 304
31, 301, 391, 401, 311, 303, 393, 403, 313, 346, 396, 356, 306, 348, 398, 358
308, 302, 392, 402, 312
32, 303, 393, 403, 313, 305, 395, 405, 315, 348, 398, 358, 308, 350, 400, 360
310, 304, 394, 404, 314
33, 361, 451, 461, 371, 363, 453, 463, 373, 406, 456, 416, 366, 408, 458, 418
368, 362, 452, 462, 372
34, 363, 453, 463, 373, 365, 455, 465, 375, 408, 458, 418, 368, 410, 460, 420
370, 364, 454, 464, 374
35, 371, 461, 471, 381, 373, 463, 473, 383, 416, 466, 426, 376, 418, 468, 428
378, 372, 462, 472, 382
36, 373, 463, 473, 383, 375, 465, 475, 385, 418, 468, 428, 378, 420, 470, 430
380, 374, 464, 474, 384
37, 381, 471, 481, 391, 383, 473, 483, 393, 426, 476, 436, 386, 428, 478, 438
388, 382, 472, 482, 392
38, 383, 473, 483, 393, 385, 475, 485, 395, 428, 478, 438, 388, 430, 480, 440
390, 384, 474, 484, 394
39, 391, 481, 491, 401, 393, 483, 493, 403, 436, 486, 446, 396, 438, 488, 448
398, 392, 482, 492, 402
40, 393, 483, 493, 403, 395, 485, 495, 405, 438, 488, 448, 398, 440, 490, 450
400, 394, 484, 494, 404
41, 451, 541, 551, 461, 453, 543, 553, 463, 496, 546, 506, 456, 498, 548, 508
458, 452, 542, 552, 462
42, 453, 543, 553, 463, 455, 545, 555, 465, 498, 548, 508, 458, 500, 550, 510
460, 454, 544, 554, 464
43, 461, 551, 561, 471, 463, 553, 563, 473, 506, 556, 516, 466, 508, 558, 518
468, 462, 552, 562, 472
44, 463, 553, 563, 473, 465, 555, 565, 475, 508, 558, 518, 468, 510, 560, 520
470, 464, 554, 564, 474
45, 471, 561, 571, 481, 473, 563, 573, 483, 516, 566, 526, 476, 518, 568, 528
478, 472, 562, 572, 482
46, 473, 563, 573, 483, 475, 565, 575, 485, 518, 568, 528, 478, 520, 570, 530
480, 474, 564, 574, 484
47, 481, 571, 581, 491, 483, 573, 583, 493, 526, 576, 536, 486, 528, 578, 538
488, 482, 572, 582, 492
48, 483, 573, 583, 493, 485, 575, 585, 495, 528, 578, 538, 488, 530, 580, 540
490, 484, 574, 584, 494
49, 541, 631, 641, 551, 543, 633, 643, 553, 586, 636, 596, 546, 588, 638, 598
548, 542, 632, 642, 552
50, 543, 633, 643, 553, 545, 635, 645, 555, 588, 638, 598, 548, 590, 640, 600
550, 544, 634, 644, 554
51, 551, 641, 651, 561, 553, 643, 653, 563, 596, 646, 606, 556, 598, 648, 608
558, 552, 642, 652, 562
52, 553, 643, 653, 563, 555, 645, 655, 565, 598, 648, 608, 558, 600, 650, 610
560, 554, 644, 654, 564
53, 561, 651, 661, 571, 563, 653, 663, 573, 606, 656, 616, 566, 608, 658, 618
568, 562, 652, 662, 572
54, 563, 653, 663, 573, 565, 655, 665, 575, 608, 658, 618, 568, 610, 660, 620
570, 564, 654, 664, 574
55, 571, 661, 671, 581, 573, 663, 673, 583, 616, 666, 626, 576, 618, 668, 628
578, 572, 662, 672, 582
56, 573, 663, 673, 583, 575, 665, 675, 585, 618, 668, 628, 578, 620, 670, 630
580, 574, 664, 674, 584
57, 631, 721, 731, 641, 633, 723, 733, 643, 676, 726, 686, 636, 678, 728, 688
638, 632, 722, 732, 642
58, 633, 723, 733, 643, 635, 725, 735, 645, 678, 728, 688, 638, 680, 730, 690
640, 634, 724, 734, 644
59, 641, 731, 741, 651, 643, 733, 743, 653, 686, 736, 696, 646, 688, 738, 698
648, 642, 732, 742, 652
60, 643, 733, 743, 653, 645, 735, 745, 655, 688, 738, 698, 648, 690, 740, 700
650, 644, 734, 744, 654
61, 651, 741, 751, 661, 653, 743, 753, 663, 696, 746, 706, 656, 698, 748, 708
658, 652, 742, 752, 662
62, 653, 743, 753, 663, 655, 745, 755, 665, 698, 748, 708, 658, 700, 750, 710
660, 654, 744, 754, 664
63, 661, 751, 761, 671, 663, 753, 763, 673, 706, 756, 716, 666, 708, 758, 718
668, 662, 752, 762, 672
64, 663, 753, 763, 673, 665, 755, 765, 675, 708, 758, 718, 668, 710, 760, 720
670, 664, 754, 764, 674
65, 721, 811, 821, 731, 723, 813, 823, 733, 766, 816, 776, 726, 768, 818, 778
728, 722, 812, 822, 732
66, 723, 813, 823, 733, 725, 815, 825, 735, 768, 818, 778, 728, 770, 820, 780
730, 724, 814, 824, 734
67, 731, 821, 831, 741, 733, 823, 833, 743, 776, 826, 786, 736, 778, 828, 788
738, 732, 822, 832, 742
68, 733, 823, 833, 743, 735, 825, 835, 745, 778, 828, 788, 738, 780, 830, 790
740, 734, 824, 834, 744
69, 741, 831, 841, 751, 743, 833, 843, 753, 786, 836, 796, 746, 788, 838, 798
748, 742, 832, 842, 752
70, 743, 833, 843, 753, 745, 835, 845, 755, 788, 838, 798, 748, 790, 840, 800
750, 744, 834, 844, 754
71, 751, 841, 851, 761, 753, 843, 853, 763, 796, 846, 806, 756, 798, 848, 808
758, 752, 842, 852, 762
72, 753, 843, 853, 763, 755, 845, 855, 765, 798, 848, 808, 758, 800, 850, 810
760, 754, 844, 854, 764
73, 811, 901, 911, 821, 813, 903, 913, 823, 856, 906, 866, 816, 858, 908, 868
818, 812, 902, 912, 822
74, 813, 903, 913, 823, 815, 905, 915, 825, 858, 908, 868, 818, 860, 910, 870
820, 814, 904, 914, 824
75, 821, 911, 921, 831, 823, 913, 923, 833, 866, 916, 876, 826, 868, 918, 878
828, 822, 912, 922, 832
76, 823, 913, 923, 833, 825, 915, 925, 835, 868, 918, 878, 828, 870, 920, 880
830, 824, 914, 924, 834
77, 831, 921, 931, 841, 833, 923, 933, 843, 876, 926, 886, 836, 878, 928, 888
838, 832, 922, 932, 842
78, 833, 923, 933, 843, 835, 925, 935, 845, 878, 928, 888, 838, 880, 930, 890
840, 834, 924, 934, 844
79, 841, 931, 941, 851, 843, 933, 943, 853, 886, 936, 896, 846, 888, 938, 898
848, 842, 932, 942, 852
80, 843, 933, 943, 853, 845, 935, 945, 855, 888, 938, 898, 848, 890, 940, 900
850, 844, 934, 944, 854
81, 901, 991, 1001, 911, 903, 993, 1003, 913, 946, 996, 956, 906, 948, 998, 958
908, 902, 992, 1002, 912
82, 903, 993, 1003, 913, 905, 995, 1005, 915, 948, 998, 958, 908, 950, 1000, 960
910, 904, 994, 1004, 914
83, 911, 1001, 1011, 921, 913, 1003, 1013, 923, 956, 1006, 966, 916, 958, 1008, 968
918, 912, 1002, 1012, 922
84, 913, 1003, 1013, 923, 915, 1005, 1015, 925, 958, 1008, 968, 918, 960, 1010, 970
920, 914, 1004, 1014, 924
85, 921, 1011, 1021, 931, 923, 1013, 1023, 933, 966, 1016, 976, 926, 968, 1018, 978
928, 922, 1012, 1022, 932
86, 923, 1013, 1023, 933, 925, 1015, 1025, 935, 968, 1018, 978, 928, 970, 1020, 980
930, 924, 1014, 1024, 934
87, 931, 1021, 1031, 941, 933, 1023, 1033, 943, 976, 1026, 986, 936, 978, 1028, 988
938, 932, 1022, 1032, 942
88, 933, 1023, 1033, 943, 935, 1025, 1035, 945, 978, 1028, 988, 938, 980, 1030, 990
940, 934, 1024, 1034, 944
89, 991, 1081, 1091, 1001, 993, 1083, 1093, 1003, 1036, 1086, 1046, 996, 1038, 1088, 1048
998, 992, 1082, 1092, 1002
90, 993, 1083, 1093, 1003, 995, 1085, 1095, 1005, 1038, 1088, 1048, 998, 1040, 1090, 1050
1000, 994, 1084, 1094, 1004
91, 1001, 1091, 1101, 1011, 1003, 1093, 1103, 1013, 1046, 1096, 1056, 1006, 1048, 1098, 1058
1008, 1002, 1092, 1102, 1012
92, 1003, 1093, 1103, 1013, 1005, 1095, 1105, 1015, 1048, 1098, 1058, 1008, 1050, 1100, 1060
1010, 1004, 1094, 1104, 1014
93, 1011, 1101, 1111, 1021, 1013, 1103, 1113, 1023, 1056, 1106, 1066, 1016, 1058, 1108, 1068
1018, 1012, 1102, 1112, 1022
94, 1013, 1103, 1113, 1023, 1015, 1105, 1115, 1025, 1058, 1108, 1068, 1018, 1060, 1110, 1070
1020, 1014, 1104, 1114, 1024
95, 1021, 1111, 1121, 1031, 1023, 1113, 1123, 1033, 1066, 1116, 1076, 1026, 1068, 1118, 1078
1028, 1022, 1112, 1122, 1032
96, 1023, 1113, 1123, 1033, 1025, 1115, 1125, 1035, 1068, 1118, 1078, 1028, 1070, 1120, 1080
1030, 1024, 1114, 1124, 1034
97, 1081, 1171, 1181, 1091, 1083, 1173, 1183, 1093, 1126, 1176, 1136, 1086, 1128, 1178, 1138
1088, 1082, 1172, 1182, 1092
98, 1083, 1173, 1183, 1093, 1085, 1175, 1185, 1095, 1128, 1178, 1138, 1088, 1130, 1180, 1140
1090, 1084, 1174, 1184, 1094
99, 1091, 1181, 1191, 1101, 1093, 1183, 1193, 1103, 1136, 1186, 1146, 1096, 1138, 1188, 1148
1098, 1092, 1182, 1192, 1102
100, 1093, 1183, 1193, 1103, 1095, 1185, 1195, 1105, 1138, 1188, 1148, 1098, 1140, 1190, 1150
1100, 1094, 1184, 1194, 1104
101, 1101, 1191, 1201, 1111, 1103, 1193, 1203, 1113, 1146, 1196, 1156, 1106, 1148, 1198, 1158
1108, 1102, 1192, 1202, 1112
102, 1103, 1193, 1203, 1113, 1105, 1195, 1205, 1115, 1148, 1198, 1158, 1108, 1150, 1200, 1160
1110, 1104, 1194, 1204, 1114
103, 1111, 1201, 1211, 1121, 1113, 1203, 1213, 1123, 1156, 1206, 1166, 1116, 1158, 1208, 1168
1118, 1112, 1202, 1212, 1122
104, 1113, 1203, 1213, 1123, 1115, 1205, 1215, 1125, 1158, 1208, 1168, 1118, 1160, 1210, 1170
1120, 1114, 1204, 1214, 1124
105, 1171, 1261, 1271, 1181, 1173, 1263, 1273, 1183, 1216, 1266, 1226, 1176, 1218, 1268, 1228
1178, 1172, 1262, 1272, 1182
106, 1173, 1263, 1273, 1183, 1175, 1265, 1275, 1185, 1218, 1268, 1228, 1178, 1220, 1270, 1230
1180, 1174, 1264, 1274, 1184
107, 1181, 1271, 1281, 1191, 1183, 1273, 1283, 1193, 1226, 1276, 1236, 1186, 1228, 1278, 1238
1188, 1182, 1272, 1282, 1192
108, 1183, 1273, 1283, 1193, 1185, 1275, 1285, 1195, 1228, 1278, 1238, 1188, 1230, 1280, 1240
1190, 1184, 1274, 1284, 1194
109, 1191, 1281, 1291, 1201, 1193, 1283, 1293, 1203, 1236, 1286, 1246, 1196, 1238, 1288, 1248
1198, 1192, 1282, 1292, 1202
110, 1193, 1283, 1293, 1203, 1195, 1285, 1295, 1205, 1238, 1288, 1248, 1198, 1240, 1290, 1250
1200, 1194, 1284, 1294, 1204
111, 1201, 1291, 1301, 1211, 1203, 1293, 1303, 1213, 1246, 1296, 1256, 1206, 1248, 1298, 1258
1208, 1202, 1292, 1302, 1212
112, 1203, 1293, 1303, 1213, 1205, 1295, 1305, 1215, 1248, 1298, 1258, 1208, 1250, 1300, 1260
1210, 1204, 1294, 1304, 1214
113, 1261, 1351, 1361, 1271, 1263, 1353, 1363, 1273, 1306, 1356, 1316, 1266, 1308, 1358, 1318
1268, 1262, 1352, 1362, 1272
114, 1263, 1353, 1363, 1273, 1265, 1355, 1365, 1275, 1308, 1358, 1318, 1268, 1310, 1360, 1320
1270, 1264, 1354, 1364, 1274
115, 1271, 1361, 1371, 1281, 1273, 1363, 1373, 1283, 1316, 1366, 1326, 1276, 1318, 1368, 1328
1278, 1272, 1362, 1372, 1282
116, 1273, 1363, 1373, 1283, 1275, 1365, 1375, 1285, 1318, 1368, 1328, 1278, 1320, 1370, 1330
1280, 1274, 1364, 1374, 1284
117, 1281, 1371, 1381, 1291, 1283, 1373, 1383, 1293, 1326, 1376, 1336, 1286, 1328, 1378, 1338
1288, 1282, 1372, 1382, 1292
118, 1283, 1373, 1383, 1293, 1285, 1375, 1385, 1295, 1328, 1378, 1338, 1288, 1330, 1380, 1340
1290, 1284, 1374, 1384, 1294
119, 1291, 1381, 1391, 1301, 1293, 1383, 1393, 1303, 1336, 1386, 1346, 1296, 1338, 1388, 1348
1298, 1292, 1382, 1392, 1302
120, 1293, 1383, 1393, 1303, 1295, 1385, 1395, 1305, 1338, 1388, 1348, 1298, 1340, 1390, 1350
1300, 1294, 1384, 1394, 1304
121, 1351, 1441, 1451, 1361, 1353, 1443, 1453, 1363, 1396, 1446, 1406, 1356, 1398, 1448, 1408
1358, 1352, 1442, 1452, 1362
122, 1353, 1443, 1453, 1363, 1355, 1445, 1455, 1365, 1398, 1448, 1408, 1358, 1400, 1450, 1410
1360, 1354, 1444, 1454, 1364
123, 1361, 1451, 1461, 1371, 1363, 1453, 1463, 1373, 1406, 1456, 1416, 1366, 1408, 1458, 1418
1368, 1362, 1452, 1462, 1372
124, 1363, 1453, 1463, 1373, 1365, 1455, 1465, 1375, 1408, 1458, 1418, 1368, 1410, 1460, 1420
1370, 1364, 1454, 1464, 1374
125, 1371, 1461, 1471, 1381, 1373, 1463, 1473, 1383, 1416, 1466, 1426, 1376, 1418, 1468, 1428
1378, 1372, 1462, 1472, 1382
126, 1373, 1463, 1473, 1383, 1375, 1465, 1475, 1385, 1418, 1468, 1428, 1378, 1420, 1470, 1430
1380, 1374, 1464, 1474, 1384
127, 1381, 1471, 1481, 1391, 1383, 1473, 1483, 1393, 1426, 1476, 1436, 1386, 1428, 1478, 1438
1388, 1382, 1472, 1482, 1392
128, 1383, 1473, 1483, 1393, 1385, 1475, 1485, 1395, 1428, 1478, 1438, 1388, 1430, 1480, 1440
1390, 1384, 1474, 1484, 1394
*MATERIAL, NAME=STEEL
*ELASTIC
210000.0, 0.3
*DENSITY
7.850e-09
*SOLID SECTION, ELSET=EALL, MATERIAL=STEEL
*NSET, NSET=NROOT
1, 2, 3, 4, 5, 6, 7, 8, 9, 10, 11, 12, 13, 14, 15
16, 17, 18, 19, 20, 21, 22, 23, 24, 25, 26, 27, 28, 29, 30
31, 32, 33, 34, 35, 36, 37, 38, 39, 40, 41, 42, 43, 44, 45
*NSET, NSET=NTIP
1441, 1442, 1443, 1444, 1445, 1446, 1447, 1448, 1449, 1450, 1451, 1452, 1453, 1454, 1455
1456, 1457, 1458, 1459, 1460, 1461, 1462, 1463, 1464, 1465, 1466, 1467, 1468, 1469, 1470
1471, 1472, 1473, 1474, 1475, 1476, 1477, 1478, 1479, 1480, 1481, 1482, 1483, 1484, 1485
*STEP, NAME=LOAD
*STATIC
**
*BOUNDARY
NROOT, 1, 6, 0.0
*CLOAD
NTIP, 2, -22.2222222222
*NODE PRINT, NSET=NTIP
U
*NODE PRINT, NSET=NROOT
RF
**
*END STEP
